! Touchstone file from project hfss-D_ZX-13132(AW1035NYBRXX)_R1.2.0
! Exported from HFSS 2017.2.0
# GHZ S DB R 50.000000
! Terminal data exported
! Port[1] = jig_sng_1
! Port[2] = jig_sng_2
0                -57.1462160355768 0                -0.0121367145384188 0                -0.0121367078458679 0                -57.1070191005882 0                
0.1              -55.418970707385 -5.32167095050924 -0.0146831799387789 -0.546730228931021 -0.0146831799387634 -0.546730228930612 -55.4163797057818 -5.24639754254059 
0.2              -53.5879571813325 -23.1893665774655 -0.016884444730142 -1.06468678679936 -0.016884444730142 -1.06468678679936 -53.5815131345453 -23.0103973115987 
0.3              -52.0994419589138 -36.7455717574055 -0.0177168817827097 -1.58268843097542 -0.0177168817827184 -1.58268843097522 -52.0909848871205 -36.4935188018829 
0.4              -50.6913686643696 -46.6304347725783 -0.0181981894898312 -2.10203470747699 -0.0181981894898361 -2.102034707477  -50.6819387322057 -46.307968349021 
0.5              -49.3696948606925 -53.9784490854888 -0.0185952053838629 -2.62192392208935 -0.01859520538386 -2.62192392208945 -49.3595746592735 -53.5844579127549 
0.6              -48.1442845167585 -59.5961520570307 -0.0189918092234274 -3.14181355834867 -0.0189918092234293 -3.14181355834867 -48.1335008654531 -59.1288095886244 
0.7              -47.0119416862841 -64.0179797515474 -0.0194212029045391 -3.66135748685212 -0.0194212029045371 -3.66135748685222 -47.0004273771936 -63.4752077873459 
0.8              -45.9630533625799 -67.5955711095157 -0.0198995651656162 -4.18031114588723 -0.0198995651656171 -4.18031114588728 -45.9506986324307 -66.9750933219193 
0.9              -44.9863041495141 -70.5636361811804 -0.0204364948130103 -4.69848348230629 -0.0204364948130103 -4.69848348230624 -44.9729732512803 -69.8629493163583 
1                -44.0707735196183 -73.0824623585687 -0.0210388159117092 -5.21571357378411 -0.021038815911713 -5.21571357378416 -44.0563091537305 -72.2987894364057 
1.1              -43.2932553638668 -75.0009128780412 -0.0217671404904537 -5.73529617477603 -0.0217671404904537 -5.73529617477598 -43.2896056277258 -74.1852859888122 
1.2              -42.5690244194281 -76.6916766322471 -0.0225161598585334 -6.25453988384316 -0.0225161598585286 -6.25453988384326 -42.574672630761 -75.8325874636495 
1.3              -41.891926401475 -78.2052703185337 -0.0232814392547953 -6.77347250499891 -0.0232814392547953 -6.77347250499891 -41.9054759529148 -77.2927977246085 
1.4              -41.2566998404084 -79.5789810810281 -0.02405971472403 -7.29212207088848 -0.0240597147240281 -7.29212207088843 -41.276839431403 -78.604774508012 
1.5              -40.658853772586 -80.8407293700525 -0.024848720550903 -7.81051552084067 -0.0248487205508981 -7.81051552084059 -40.6843429871788 -79.7979291670878 
1.6              -40.0945455479675 -82.011698309471 -0.0256470102065409 -8.32867783161189 -0.0256470102065438 -8.32867783161181 -40.1242115151043 -80.8948202019937 
1.7              -39.5604723518684 -83.1081552036643 -0.0264537863084393 -8.84663151431377 -0.0264537863084345 -8.84663151431369 -39.5932117612635 -81.9129552260735 
1.8              -39.0537797080662 -84.1427343223771 -0.0272687484688167 -9.36439638911557 -0.0272687484688109 -9.36439638911559 -39.0885627441337 -82.8660650271678 
1.9              -38.5719861513774 -85.1253538923853 -0.0280919629917636 -9.88198955818283 -0.0280919629917559 -9.88198955818276 -38.6078603841894 -83.765019477414 
2                -38.1129218850148 -86.0638804166574 -0.0289237550708355 -10.3994255109993 -0.0289237550708307 -10.3994255109992 -38.149015100519 -84.6184962450624 
2.1              -37.6746790022607 -86.9646156813575 -0.0297646221346277 -10.9167163108519 -0.029764622134619 -10.9167163108517 -37.7102005443539 -85.4334760104169 
2.2              -37.2555710570341 -87.832657551656 -0.0306151659424571 -11.4338718246719 -0.0306151659424483 -11.4338718246717 -37.2898116099922 -86.2156139539726 
2.3              -36.8541001092093 -88.6721697857848 -0.0314760406336569 -11.9508999696854 -0.0314760406336472 -11.9508999696853 -36.8864300498773 -86.9695216737501 
2.4              -36.4689297203898 -89.4865855257602 -0.0323479139357369 -12.4678069591811 -0.0323479139357302 -12.467806959181 -36.498796269507 -87.698983348547 
2.5              -36.0988626861104 -90.2787619607394 -0.0332314389612257 -12.9845975363548 -0.0332314389612131 -12.9845975363547 -36.1257861243055 -88.407123007848 
2.6              -35.7428225482055 -91.0510987280578 -0.0341272343505095 -13.5012751899671 -0.034127234350493 -13.5012751899671 -35.7663917597934 -89.0965350188433 
2.7              -35.3998381378553 -91.8056291725747 -0.0350358708744451 -14.0178423488559 -0.0350358708744267 -14.0178423488558 -35.4197057216666 -89.7693866081534 
2.8              -35.0690305625147 -92.5440911472219 -0.0359578629525738 -14.5343005545314 -0.0359578629525583 -14.5343005545313 -35.0849077147721 -90.4274989203935 
2.9              -34.7496021766092 -93.2679822921215 -0.0368936638496996 -15.0506506124545 -0.0368936638496812 -15.0506506124545 -34.7612535134266 -91.0724114647582 
3                -34.4408271738606 -93.9786034671048 -0.0378436635762204 -15.5668927233973 -0.0378436635762059 -15.5668927233972 -34.4480656245478 -91.7054336081157 
3.1              -34.1420435148398 -94.6770930906361 -0.0388081887358744 -16.0830265966985 -0.0388081887358618 -16.0830265966984 -34.1447253842398 -92.3276859005539 
3.2              -33.8526459618504 -95.3644544601953 -0.0397875037415424 -16.5990515473797 -0.0397875037415249 -16.5990515473796 -33.8506662314312 -92.9401333735338 
3.3              -33.5720800386246 -96.0415776265724 -0.04078181296086 -17.1149665790758 -0.0407818129608425 -17.1149665790758 -33.5653679523732 -93.5436124675972 
3.4              -33.2998367675744 -96.7092570199614 -0.0417912634641377 -17.630770454637 -0.0417912634641213 -17.630770454637 -33.2883517296447 -94.138852881483 
3.5              -33.0354480649592 -97.3682057448589 -0.0428159481331111 -18.146461756099 -0.0428159481330898 -18.146461756099 -33.0191758611045 -94.7264953559854 
3.6              -32.77848269603  -98.0190672489426 -0.0438559089550262 -18.6620389355447 -0.0438559089550068 -18.6620389355446 -32.757432039551 -95.3071061919139 
3.7              -32.5285427094123 -98.6624249108628 -0.0449111403768691 -19.1775003581991 -0.0449111403768468 -19.1775003581991 -32.5027421040573 -95.8811891356242 
3.8              -32.2852602837056 -99.2988099698233 -0.0459815926323197 -19.6928443389258 -0.0459815926322984 -19.6928443389257 -32.2547551901631 -96.4491951364054 
3.9              -32.0482949302869 -99.9287081266742 -0.0470671749823102 -20.2080691731319 -0.0470671749822947 -20.2080691731318 -32.0131452190728 -97.011530378616 
4                -31.8173310052287 -100.552565074708 -0.0481677588310491 -20.7231731629468 -0.0481677588310316 -20.7231731629467 -31.7776086764689 -97.5685629116209 
4.1              -31.5920754905009 -101.170791163287 -0.0492831806944526 -21.2381546394077 -0.0492831806944312 -21.2381546394077 -31.547862639992 -98.1206281373188 
4.2              -31.3722560105893 -101.783765354869 -0.0504132450092326 -21.753011981279 -0.0504132450092103 -21.753011981279 -31.3236430212539 -98.6680333647624 
4.3              -31.1576190556026 -102.391838602873 -0.0515577267784699 -22.2677436310297 -0.0515577267784543 -22.2677436310296 -31.104702993829 -99.2110616012597 
4.4              -30.9479283860126 -102.995336752106 -0.05271637405509 -22.7823481084173 -0.0527163740550735 -22.7823481084173 -30.8908115831736 -99.7499747172543 
4.5              -30.7429635976306 -103.594563043288 -0.0538889102682172 -23.2968240220515 -0.0538889102682055 -23.2968240220515 -30.6817523981584 -100.285016096455 
4.6              -30.5425188282843 -104.189800287332 -0.05507503639991 -23.8111700792516 -0.0550750363998983 -23.8111700792516 -30.4773224869436 -100.816412861984 
4.7              -30.346401590109 -104.781312762611 -0.0562744330209602 -24.3253850944648 -0.0562744330209388 -24.3253850944648 -30.2773313024501 -101.344377752513 
4.8              -30.1544317134372 -105.369347878542 -0.0574867621953613 -24.8394679964657 -0.0574867621953439 -24.8394679964657 -30.0815997647746 -101.869110708806 
4.9              -29.9664403900023 -105.954137641707 -0.0587116692633334 -25.353417834525 -0.0587116692633169 -25.353417834525 -29.8899594095694 -102.390800219488 
5                -29.7822693062021 -106.535899920718 -0.0599487845109614 -25.8672337836687 -0.0599487845109449 -25.8672337836687 -29.7022516161369 -102.909624492783 
5.1              -29.6017698486364 -107.114839721281 -0.0611977247446274 -26.3809151493542 -0.0611977247446119 -26.3809151493542 -29.5183268889393 -103.425752338693 
5.2              -29.4248023957252 -107.691149995901 -0.0624580947561959 -26.8944613711578 -0.0624580947561813 -26.8944613711578 -29.3380442332165 -103.93934418261 
5.3              -29.2512356548622 -108.26501275005 -0.0637294887219087 -27.4078720263403 -0.0637294887218922 -27.4078720263403 -29.1612705465027 -104.450552641215 
5.4              -29.0809460687547 -108.836599783092 -0.0650114915114721 -27.9211468326655 -0.0650114915114585 -27.9211468326655 -28.9878800857688 -104.959523215972 
5.5              -28.9138172689647 -109.406073440557 -0.0663036799315141 -28.4342856509147 -0.0663036799315043 -28.4342856509147 -28.8177539701138 -105.466394829949 
5.6              -28.7497395762838 -109.973587281543 -0.0676056239051265 -28.9472884870425 -0.0676056239051158 -28.9472884870426 -28.6507797249542 -105.971300305179 
5.7              -28.5886095428995 -110.539286681702 -0.0689168875940674 -29.4601554940309 -0.0689168875940548 -29.4601554940309 -28.4868508627529 -106.474366781707 
5.8              -28.4303295323006 -111.103309379381 -0.07023703046922 -29.9728869734797 -0.0702370304692122 -29.9728869734797 -28.3258664968516 -106.975716086975 
5.9              -28.2748073333294 -111.665785971293 -0.0715656083343529 -30.4854833769668 -0.0715656083343451 -30.4854833769668 -28.1677309853761 -107.475465062829 
6                -28.1219558051663 -112.226840363148 -0.0729021743075779 -30.9979453072035 -0.0729021743075624 -30.9979453072035 -28.0123536024954 -107.973725856351 
6.1              -27.9716925503682 -112.786590180014 -0.0742462797647563 -31.510273519009 -0.0742462797647466 -31.510273519009 -27.8596482345996 -108.470606179575 
6.2              -27.8239396133886 -113.345147140502 -0.0755974752485357 -32.022468920122 -0.0755974752485269 -32.022468920122 -27.7095330992132 -108.966209542485 
6.3              -27.678623202264 -113.902617398419 -0.0769553113462129 -32.5345325718652 -0.076955311346209 -32.5345325718652 -27.5619304846737 -109.460635462841 
6.4              -27.5356734313891 -114.45910185506 -0.0783193395395669 -33.046465689677 -0.0783193395395562 -33.046465689677 -27.4167665087966 -109.953979655937 
6.5              -27.3950240835103 -115.014696444951 -0.0796891130292505 -33.5582696435203 -0.0796891130292456 -33.5582696435203 -27.2739708949294 -110.446334206831 
6.6              -27.256612389252 -115.569492397516 -0.0810641875362347 -34.0699459581787 -0.0810641875362269 -34.0699459581788 -27.1334767639355 -110.937787727254 
6.7              -27.1203788226579 -116.123576476913 -0.0824441220823575 -34.5814963134475 -0.0824441220823517 -34.5814963134475 -26.9952204407993 -111.428425499017 
6.8              -26.9862669113698 -116.677031201974 -0.0838284797520351 -35.0929225442256 -0.0838284797520322 -35.0929225442257 -26.8591412746541 -111.918329605518 
6.9              -26.8542230602057 -117.229935048038 -0.0852168284367617 -35.6042266405152 -0.0852168284367607 -35.6042266405153 -26.7251814711504 -112.407579052678 
7                -26.7241963870093 -117.782362632266 -0.0866087415640383 -36.115410747332 -0.0866087415640364 -36.115410747332 -26.5932859361767 -112.896249880455 
7.1              -26.5961385697546 -118.33438488384 -0.0880037988120644 -36.6264771645304 -0.0880037988120644 -36.6264771645304 -26.4634021300342 -113.384415265933 
7.2              -26.470003703977 -118.886069200368 -0.0894015868114507 -37.137428346548 -0.0894015868114419 -37.1374283465481 -26.3354799312442 -113.872145618829 
7.3              -26.3457481696925 -119.437479591638 -0.0908016998350569 -37.6482669020701 -0.090801699835054 -37.6482669020701 -26.2094715092421 -114.359508670163 
7.4              -26.2233305070398 -119.988676811781 -0.0922037404769764 -38.1589955936169 -0.0922037404769744 -38.158995593617 -26.0853312052715 -114.846569554723 
7.5              -26.1027112999479 -120.539718480826 -0.0936073203215031 -38.6696173370568 -0.0936073203214992 -38.6696173370568 -25.9630154208532 -115.333390887902 
7.6              -25.9838530671969 -121.090659196505 -0.0950120606028885 -39.1801352010439 -0.0950120606028895 -39.1801352010439 -25.8424825132567 -115.820032837368 
7.7              -25.8667201602907 -121.641550637121 -0.0964175928566281 -39.6905524063847 -0.0964175928566252 -39.6905524063847 -25.7236926974488 -116.306553190034 
7.8              -25.7512786676153 -122.192441656216 -0.0978235595628092 -40.2008723253314 -0.0978235595628092 -40.2008723253314 -25.6066079540368 -116.793007414677 
7.9              -25.6374963243972 -122.743378369717 -0.0992296147822199 -40.7110984808051 -0.0992296147822209 -40.7110984808051 -25.4911919427649 -117.279448720573 
8                -25.5253424280219 -123.294404236171 -0.100635424785547 -41.2212345455481 -0.100635424785548 -41.2212345455481 -25.3774099211568 -117.765928112435 
8.1              -25.4147877583069 -123.845560130668 -0.10204066867623 -41.7312843412058 -0.102040668676228 -41.7312843412058 -25.2652286679311 -118.252494441929 
8.2              -25.3058045023573 -124.396884412955 -0.103445039007296 -42.241251837339 -0.103445039007296 -42.241251837339 -25.1546164108459 -118.739194456022 
8.3              -25.1983661836661 -124.948412990251 -0.104848242392541 -42.7511411503664 -0.104848242392546 -42.7511411503664 -25.0455427586549 -119.226072842389 
8.4              -25.0924475951452 -125.500179375218 -0.106250000112334 -43.2609565424376 -0.106250000112333 -43.2609565424376 -24.9379786368843 -119.713172272063 
8.5              -24.9880247358008 -126.052214739504 -0.107650048714304 -43.770702420236 -0.107650048714303 -43.770702420236 -24.8318962271605 -120.200533439537 
8.6              -24.88507475079  -126.604547963256 -0.109048140609207 -44.2803833337128 -0.109048140609203 -44.2803833337128 -24.7272689098402 -120.688195100493 
8.7              -24.7835758746169 -127.157205680988 -0.110444044662067 -44.7900039747502 -0.110444044662069 -44.7900039747501 -24.624071209715 -121.176194107298 
8.8              -24.6835073772438 -127.710212324119 -0.111837546778856 -45.2995691757554 -0.111837546778856 -45.2995691757554 -24.5222787445758 -121.664565442441 
8.9              -24.5848495129138 -128.263590160528 -0.113228450488775 -45.8090839081845 -0.113228450488776 -45.8090839081845 -24.4218681764439 -122.153342250038 
9                -24.4875834714945 -128.81735933142 -0.114616577522327 -46.3185532809951 -0.11461657752233 -46.3185532809951 -24.322817165285 -122.64255586554 
9.1              -24.391691332171 -129.371537885787 -0.116001768385284 -46.8279825390289 -0.11600176838528 -46.8279825390289 -24.2251043250412 -123.132235843777 
9.2              -24.2971560193247 -129.926141812735 -0.117383882928526 -47.3373770613233 -0.117383882928523 -47.3373770613233 -24.1287091818221 -123.622409985446 
9.3              -24.2039612604536 -130.481185071913 -0.118762800913979 -47.8467423593507 -0.118762800913975 -47.8467423593507 -24.0336121341149 -124.113104362161 
9.4              -24.1120915459949 -131.03667962231 -0.120138422576561 -48.3560840751872 -0.12013842257656 -48.3560840751872 -23.9397944148773 -124.604343340184 
9.5              -24.0215320909262 -131.592635449614 -0.12151066918224 -48.8654079796083 -0.121510669182239 -48.8654079796083 -23.8472380553896 -125.096149602915 
9.6              -23.9322687980295 -132.149060592355 -0.122879483582182 -49.3747199701118 -0.122879483582181 -49.3747199701117 -23.7559258507545 -125.588544172274 
9.7              -23.8442882227104 -132.705961167037 -0.124244830763055 -49.8840260688683 -0.124244830763054 -49.8840260688682 -23.6658413269333 -126.081546429042 
9.8              -23.7575775392755 -133.263341392435 -0.125606698393356 -50.3933324205972 -0.125606698393355 -50.3933324205972 -23.5769687092243 -126.575174132273 
9.9              -23.6721245085766 -133.821203613241 -0.126965097365933 -50.9026452903697 -0.12696509736593 -50.9026452903696 -23.4892928920882 -127.069443437859 
10               -23.5879174469395 -134.379548323225 -0.128320062336422 -51.4119710613355 -0.128320062336416 -51.4119710613354 -23.4027994102387 -127.564368916334 
10.1             -23.4987505573212 -134.952197627622 -0.12965186409629 -51.9207040161914 -0.129651864096284 -51.9207040161913 -23.3206595984026 -128.05267090857 
10.2             -23.4109970704355 -135.524794087313 -0.130982856957619 -52.4294048914038 -0.130982856957614 -52.4294048914038 -23.2394375116054 -128.540338959039 
10.3             -23.3246260620462 -136.097279090462 -0.13231311776135 -52.9380744079827 -0.132313117761349 -52.9380744079826 -23.1591184002899 -129.027397620218 
10.4             -23.2396074034825 -136.669598058971 -0.133642720884768 -53.4467132593405 -0.133642720884763 -53.4467132593404 -23.079687955823 -129.513870250641 
10.5             -23.1559117416924 -137.241700244782 -0.134971738240413 -53.9553221128943 -0.134971738240406 -53.9553221128943 -23.0011322934734 -129.999779064478 
10.6             -23.0735104797519 -137.813538536154 -0.136300239281738 -54.4639016115996 -0.13630023928174 -54.4639016115996 -22.9234379361381 -130.485145178462 
10.7             -22.9923757578241 -138.385069273427 -0.137628291014863 -54.9724523754192 -0.13762829101486 -54.9724523754192 -22.8465917987775 -130.969988656331 
10.8             -22.912480434563 -138.956252073772 -0.138955958015819 -55.4809750027287 -0.138955958015822 -55.4809750027287 -22.7705811735181 -131.454328550923 
10.9             -22.8337980689145 -139.527049664682 -0.140283302453064 -55.9894700716625 -0.140283302453062 -55.9894700716625 -22.695393715343 -131.938182944005 
11               -22.7563029045591 -140.097427713201 -0.141610384102689 -56.4979381413346 -0.141610384102688 -56.4979381413346 -22.6210174309879 -132.421568990129 
11.1             -22.6799698432859 -140.667354727048 -0.142937260428882 -57.0063797533417 -0.142937260428882 -57.0063797533417 -22.5474406548596 -132.904502926962 
11.2             -22.6047744451309 -141.236801815771 -0.144263986527878 -57.514795432435 -0.144263986527877 -57.514795432435 -22.4746520565467 -133.387000156326 
11.3             -22.5306928962948 -141.805742641174 -0.145590615248662 -58.0231856880993 -0.145590615248664 -58.0231856880993 -22.4026406103868 -133.869075233772 
11.4             -22.4577020001895 -142.374153247284 -0.146917197195785 -58.5315510154121 -0.14691719719579 -58.5315510154121 -22.3313955923028 -134.35074191912 
11.5             -22.3857791605801 -142.942011942934 -0.148243780778812 -59.0398918960976 -0.148243780778813 -59.0398918960976 -22.2609065673217 -134.832013202697 
11.6             -22.3149023663012 -143.509299183614 -0.149570412257742 -59.5482087994987 -0.149570412257742 -59.5482087994987 -22.1911633789323 -135.312901333448 
11.7             -22.2450501763765 -144.075997458805 -0.150897135790263 -60.0565021835013 -0.15089713579027 -60.0565021835013 -22.1221561388895 -135.793417845834 
11.8             -22.1762017055169 -144.642091184618 -0.152223993480738 -60.5647724954162 -0.152223993480745 -60.5647724954162 -22.0538752174253 -136.273573585521 
11.9             -22.1083366099849 -145.20756660147 -0.153551025430578 -61.0730201728173 -0.15355102543058 -61.0730201728173 -21.9863112338426 -136.753378733945 
12               -22.0414350738188 -145.77241167657 -0.154878269789892 -61.5812456443397 -0.154878269789897 -61.5812456443397 -21.919455047476 -137.23284283181 
12.1             -21.9754777954072 -146.336616010959 -0.156205762810225 -62.0894493304386 -0.15620576281023 -62.0894493304387 -21.8532977489993 -137.711974801593 
12.2             -21.9104459744059 -146.900170750899 -0.157533538898077 -62.5976316441113 -0.157533538898081 -62.5976316441113 -21.7878306520663 -138.190782969104 
12.3             -21.8463212989898 -147.463068503382 -0.15886163066917 -63.1057929915819 -0.158861630669173 -63.1057929915819 -21.7230452852681 -138.669275084169 
12.4             -21.7830859334309 -148.025303255558 -0.160190069003255 -63.6139337729527 -0.16019006900326 -63.6139337729527 -21.6589333843937 -139.147458340483 
12.5             -21.7207225059957 -148.58687029791 -0.161518883099297 -64.1220543828221 -0.161518883099299 -64.1220543828222 -21.5954868849789 -139.625339394679 
12.6             -21.6592140971533 -149.14776615097 -0.162848100530939 -64.6301552108707 -0.162848100530939 -64.6301552108708 -21.5326979151331 -140.102924384667 
12.7             -21.5985442280864 -149.707988495416 -0.164177747302129 -65.1382366424167 -0.164177747302131 -65.1382366424168 -21.4705587886283 -140.580218947279 
12.8             -21.5386968494992 -150.267536105391 -0.165507847902806 -65.6462990589426 -0.165507847902812 -65.6462990589426 -21.4090619982436 -141.057228235263 
12.9             -21.4796563307116 -150.82640878488 -0.166838425364523 -66.1543428385934 -0.166838425364527 -66.1543428385935 -21.3482002093498 -141.533956933667 
13               -21.4214074490369 -151.384607307006 -0.168169501315942 -66.6623683566488 -0.168169501315947 -66.6623683566489 -21.2879662537268 -142.010409275639 
13.1             -21.3639353794298 -151.942133356096 -0.169501096038119 -67.1703759859687 -0.169501096038129 -67.1703759859687 -21.2283531236027 -142.486589057687 
13.2             -21.3072256844042 -152.498989472399 -0.170833228519525 -67.6783660974145 -0.170833228519532 -67.6783660974146 -21.1693539659067 -142.962499654424 
13.3             -21.2512643042077 -153.05517899932 -0.172165916510667 -68.1863390602475 -0.172165916510673 -68.1863390602475 -21.1109620767255 -143.438144032822 
13.4             -21.1960375472506 -153.610706033046 -0.173499176578371 -68.6942952425033 -0.173499176578377 -68.6942952425033 -21.0531708959555 -143.913524766018 
13.5             -21.1415320807795 -154.165575374471 -0.174833024159565 -69.2022350113459 -0.17483302415957 -69.2022350113459 -20.9959740021442 -144.38864404668 
13.6             -21.0877349217903 -154.719792483286 -0.176167473614569 -69.7101587334003 -0.176167473614576 -69.7101587334003 -20.9393651075114 -144.863503699964 
13.7             -21.034633428175 -155.273363434159 -0.177502538279845 -70.2180667750656 -0.177502538279847 -70.2180667750656 -20.8833380531447 -145.338105196086 
13.8             -20.9822152900928 -155.826294874881 -0.178838230520154 -70.7259595028087 -0.178838230520165 -70.7259595028087 -20.8278868043611 -145.812449662528 
13.9             -20.9304685215635 -156.378593986409 -0.180174561780124 -71.2338372834403 -0.180174561780133 -71.2338372834404 -20.7730054462303 -146.2865378959  
14               -20.8793814522734 -156.9302684447  -0.181511542635136 -71.741700484373 -0.181511542635147 -71.7417004843731 -20.7186881792519 -146.760370373466 
14.1             -20.82894271959  -157.481326384271 -0.182849182841592 -72.249549473863 -0.182849182841604 -72.249549473863 -20.6649293151812 -147.233947264365 
14.2             -20.7791412607794 -158.031776363386 -0.184187491386429 -72.7573846212353 -0.184187491386436 -72.7573846212354 -20.6117232729986 -147.707268440538 
14.3             -20.7299663054189 -158.581627330811 -0.18552647653601 -73.2652062970947 -0.185526476536019 -73.2652062970947 -20.5590645750173 -148.180333487365 
14.4             -20.6814073680028 -159.130888594051 -0.186866145884205 -73.7730148735203 -0.186866145884213 -73.7730148735203 -20.5069478431236 -148.65314171405 
14.5             -20.6334542407316 -159.679569789019 -0.188206506399772 -74.2808107242479 -0.188206506399782 -74.2808107242479 -20.4553677951456 -149.125692163735 
14.6             -20.5860969864838 -160.227680851057 -0.189547564473013 -74.7885942248373 -0.189547564473023 -74.7885942248373 -20.4043192413464 -149.597983623391 
14.7             -20.5393259319613 -160.775231987245 -0.190889325961618 -75.2963657528278 -0.190889325961626 -75.2963657528278 -20.353797081036 -150.070014633463 
14.8             -20.4931316610058 -161.322233649963 -0.192231796235776 -75.8041256878806 -0.192231796235788 -75.8041256878806 -20.3037962992991 -150.541783497303 
14.9             -20.4475050080805 -161.868696511616 -0.193574980222491 -76.3118744119099 -0.193574980222501 -76.3118744119099 -20.2543119638347 -151.013288290395 
15               -20.4024370519123 -162.414631440503 -0.194918882449155 -76.819612309202 -0.194918882449162 -76.819612309202 -20.2053392219025 -151.484526869375 
15.1             -20.3579191092898 -162.96004947775 -0.196263507086307 -77.3273397665241 -0.196263507086314 -77.3273397665241 -20.1568732973747 -151.955496880861 
15.2             -20.3139427290129 -163.504961815285 -0.197608857989589 -77.8350571732226 -0.197608857989599 -77.8350571732226 -20.1089094878876 -152.426195770096 
15.3             -20.2704996859893 -164.049379774788 -0.198954938740996 -78.3427649213108 -0.198954938741003 -78.3427649213108 -20.0614431620917 -152.896620789421 
15.4             -20.2275819754739 -164.593314787584 -0.200301752689263 -78.8504634055477 -0.200301752689272 -78.8504634055477 -20.0144697569946 -153.366769006571 
15.5             -20.1851818074463 -165.136778375442 -0.201649302989497 -79.3581530235074 -0.201649302989507 -79.3581530235075 -19.967984775397 -153.836637312813 
15.6             -20.1432916011229 -165.679782132223 -0.202997592642062 -79.8658341756396 -0.202997592642064 -79.8658341756396 -19.9219837834163 -154.306222430918 
15.7             -20.1019039796001 -166.222337706363 -0.204346624530587 -80.3735072653214 -0.204346624530602 -80.3735072653214 -19.8764624080955 -154.775520922995 
15.8             -20.0610117646234 -166.764456784134 -0.205696401459364 -80.8811726989017 -0.205696401459366 -80.8811726989017 -19.8314163350962 -155.24452919816 
15.9             -20.0206079714794 -167.306151073664 -0.207046926189767 -81.3888308857373 -0.207046926189773 -81.3888308857373 -19.7868413064714 -155.713243520081 
16               -19.9806858040083 -167.847432289678 -0.208398201476102 -81.8964822382215 -0.20839820147611 -81.8964822382215 -19.7427331185164 -156.181660014366 
16.1             -19.9412386497304 -168.388312138932 -0.209750230100546 -82.404127171806 -0.209750230100561 -82.404127171806 -19.6990876196954 -156.649774675834 
16.2             -19.9022600750863 -168.928802306304 -0.211103014907422 -82.9117661050153 -0.21110301490743 -82.9117661050153 -19.6559007086423 -157.117583375642 
16.3             -19.8637438207857 -169.468914441525 -0.212456558836669 -83.4193994594555 -0.212456558836673 -83.4193994594555 -19.6131683322312 -157.585081868295 
16.4             -19.8256837972619 -170.008660146517 -0.213810864956568 -83.9270276598158 -0.213810864956577 -83.9270276598158 -19.5708864837179 -158.05226579852 
16.5             -19.788074080229 -170.548050963317 -0.215165936495793 -84.4346511338644 -0.215165936495794 -84.4346511338645 -19.5290512009466 -158.519130708031 
16.6             -19.7509089063388 -171.087098362553 -0.216521776874599 -84.9422703124391 -0.216521776874606 -84.9422703124391 -19.4876585646237 -158.985672042165 
16.7             -19.7141826689344 -171.625813732468 -0.217878389735435 -85.4498856294311 -0.217878389735444 -85.4498856294311 -19.446704696653 -159.451885156409 
16.8             -19.6778899138973 -172.164208368454 -0.219235778972696 -85.9574975217647 -0.219235778972707 -85.9574975217647 -19.4061857585338 -159.917765322802 
16.9             -19.6420253355863 -172.702293463081 -0.220593948761868 -86.4651064293717 -0.220593948761876 -86.4651064293717 -19.3660979498179 -160.38330773624 
17               -19.6065837728636 -173.240080096611 -0.221952903587868 -86.9727127951599 -0.221952903587877 -86.9727127951599 -19.3264375066245 -160.848507520652 
17.1             -19.5715602052079 -173.777579227956 -0.223312648272762 -87.4803170649784 -0.223312648272768 -87.4803170649784 -19.2872007002117 -161.313359735082 
17.2             -19.5369497489097 -174.314801686091 -0.224673188002733 -87.9879196875773 -0.224673188002743 -87.9879196875773 -19.2483838356029 -161.777859379651 
17.3             -19.502747653348 -174.851758161882 -0.226034528354404 -88.4955211145634 -0.22603452835441 -88.4955211145634 -19.2099832502653 -162.242001401421 
17.4             -19.4689492973457 -175.388459200327 -0.227396675320409 -89.0031218003522 -0.227396675320419 -89.0031218003522 -19.1719953128409 -162.705780700149 
17.5             -19.4355501856   -175.924915193189 -0.228759635334385 -89.5107222021151 -0.228759635334388 -89.5107222021151 -19.1344164219276 -163.169192133937 
17.6             -19.402545945188 -176.461136372012 -0.230123415295175 -90.0183227797238 -0.230123415295181 -90.0183227797238 -19.0972430049081 -163.632230524776 
17.7             -19.3699323221439 -176.997132801493 -0.231488022590491 -90.5259239956903 -0.2314880225905 -90.5259239956903 -19.0604715168275 -164.094890663994 
17.8             -19.3377051781051 -177.532914373223 -0.232853465119821 -91.0335263151038 -0.232853465119822 -91.0335263151038 -19.024098439315 -164.557167317593 
17.9             -19.3058604870273 -178.068490799755 -0.234219751316724 -91.5411302055642 -0.234219751316731 -91.5411302055642 -18.9881202795521 -165.01905523149 
18               -19.2743943319645 -178.603871609011 -0.235586890170513 -92.0487361371125 -0.235586890170523 -92.0487361371125 -18.9525335692828 -165.480549136656 
18.1             -19.2433029019137 -179.139066139002 -0.236954891247232 -92.5563445821581 -0.23695489124724 -92.5563445821581 -18.917334863866 -165.941643754152 
18.2             -19.2125824887214 -179.674083532862 -0.238323764710039 -93.063956015403 -0.238323764710047 -93.063956015403 -18.8825207413696 -166.402333800068 
18.3             -19.1822294840511 179.791067265826 -0.239693521338972 -93.5715709137637 -0.239693521338978 -93.5715709137637 -18.8480878017029 -166.862613990362 
18.4             -19.1522403764089 179.256377517407 -0.241064172550069 -94.0791897562903 -0.241064172550076 -94.0791897562903 -18.8140326657887 -167.322479045593 
18.5             -19.1226117482274 178.721838690255 -0.242435730413897 -94.5868130240827 -0.242435730413903 -94.5868130240827 -18.7803519747718 -167.781923695568 
18.6             -19.0933402730042 178.187442464604 -0.243808207673451 -95.0944412002049 -0.24380820767346 -95.0944412002049 -18.7470423892644 -168.240942683878 
18.7             -19.0644227124961 177.653180736107 -0.245181617761471 -95.6020747695967 -0.24518161776147 -95.6020747695967 -18.7141005886257 -168.699530772338 
18.8             -19.0358559139647 177.119045619147 -0.246555974817126 -96.1097142189835 -0.246555974817138 -96.1097142189835 -18.6815232702765 -169.157682745337 
18.9             -19.0076368074744 176.585029449892 -0.247931293702181 -96.6173600367838 -0.247931293702182 -96.6173600367838 -18.6493071490463 -169.615393414077 
19               -18.9797624032408 176.051124789113 -0.249307590016467 -97.1250127130148 -0.249307590016471 -97.1250127130148 -18.6174489565523 -170.072657620727 
19.1             -18.952229789027 175.517324424759 -0.250684880112879 -97.6326727391964 -0.250684880112885 -97.6326727391964 -18.5859454406095 -170.529470242467 
19.2             -18.9250361275892 174.983621374309 -0.252063181111736 -98.1403406082531 -0.252063181111741 -98.1403406082531 -18.5547933646706 -170.985826195444 
19.3             -18.8981786541672 174.450008886896 -0.253442510914571 -98.6480168144139 -0.25344251091457 -98.6480168144139 -18.5239895072953 -171.44172043863 
19.4             -18.8716546740223 173.916480445215 -0.254822888217393 -99.1557018531123 -0.254822888217394 -99.1557018531122 -18.493530661647 -171.897147977575 
19.5             -18.8454615600181 173.383029767212 -0.256204332523358 -99.6633962208822 -0.256204332523364 -99.6633962208822 -18.4634136350174 -172.352103868076 
19.6             -18.8195967502459 172.849650807575 -0.257586864154882 -100.171100415255 -0.25758686415488 -100.171100415255 -18.4336352483766 -172.806583219735 
19.7             -18.7940577456919 172.31633775901  -0.258970504265223 -100.678814934654 -0.258970504265224 -100.678814934654 -18.4041923359494 -173.260581199437 
19.8             -18.7688421079466 171.783085053333 -0.260355274849513 -101.186540278287 -0.260355274849513 -101.186540278287 -18.3750817448147 -173.714093034716 
19.9             -18.7439474569548 171.249887362349 -0.261741198755222 -101.694276946041 -0.261741198755223 -101.694276946041 -18.3463003345302 -174.16711401704 
20               -18.7193714688057 170.716739598563 -0.263128299692138 -102.202025438369 -0.263128299692139 -102.202025438369 -18.3178449767785 -174.619639504991 
20.1             -18.6951118735618 170.183636915684 -0.264516602241762 -102.709786256186 -0.264516602241761 -102.709786256186 -18.289712555036 -175.071664927356 
20.2             -18.6711664531269 169.650574708965 -0.265906131866188 -103.217559900755 -0.265906131866186 -103.217559900755 -18.2618999642623 -175.523185786118 
20.3             -18.647533039151 169.117548615352 -0.267296914916489 -103.725346873575 -0.267296914916487 -103.725346873575 -18.2344041106105 -175.974197659361 
20.4             -18.6242095109736 168.58455451347  -0.268688978640556 -104.233147676272 -0.268688978640557 -104.233147676272 -18.2072219111569 -176.424696204076 
20.5             -18.601193793602 168.051588523426 -0.27008235119043 -104.740962810484 -0.270082351190431 -104.740962810484 -18.1803502936491 -176.874677158874 
20.6             -18.5784838557268 167.518647006454 -0.271477061629104 -105.248792777747 -0.271477061629104 -105.248792777747 -18.1537861962732 -177.324136346611 
20.7             -18.5560777077716 166.985726564395 -0.272873139936865 -105.756638079384 -0.272873139936868 -105.756638079384 -18.1275265674369 -177.773069676919 
20.8             -18.5339733999787 166.45282403901  -0.274270617017082 -106.26449921639 -0.274270617017084 -106.26449921639 -18.1015683655708 -178.221473148643 
20.9             -18.5121690205283 165.919936511143 -0.275669524701526 -106.772376689315 -0.27566952470153 -106.772376689315 -18.0759085589441 -178.669342852196 
21               -18.4906626936914 165.387061299726 -0.277069895755188 -107.280270998149 -0.277069895755192 -107.280270998149 -18.0505441254972 -179.116674971813 
21.1             -18.4694525780173 164.854195960631 -0.278471763880605 -107.788182642214 -0.278471763880604 -107.788182642214 -18.0254720526871 -179.563465787725 
21.2             -18.4485368645529 164.321338285375 -0.279875163721677 -108.296112120038 -0.279875163721675 -108.296112120038 -18.0006893373484 179.990288321756 
21.3             -18.4279137750951 163.788486299683 -0.28128013086707 -108.804059929247 -0.281280130867071 -108.804059929247 -17.9761929855663 179.544590878245 
21.4             -18.4075815604758 163.255638261901 -0.282686701853048 -109.312026566448 -0.282686701853045 -109.312026566448 -17.9519800125628 179.099445301373 
21.5             -18.3875384988789 162.722792661276 -0.284094914165885 -109.820012527111 -0.284094914165884 -109.820012527111 -17.9280474425952 178.654854906963 
21.6             -18.3677828941881 162.189948216095 -0.285504806243809 -110.32801830546 -0.285504806243809 -110.32801830546 -17.9043923088654 178.21082290529  
21.7             -18.3483130743674 161.657103871693 -0.286916417478441 -110.836044394349 -0.286916417478443 -110.836044394349 -17.8810116534405 177.767352399431 
21.8             -18.3291273898715 161.124258798325 -0.28832978821581 -111.344091285154 -0.288329788215815 -111.344091285154 -17.8579025271839 177.324446383684 
21.9             -18.3102242120882 160.591412388915 -0.28974495975687 -111.852159467657 -0.289744959756868 -111.852159467657 -17.8350619896951 176.882107742084 
22               -18.2916019318108 160.058564256676 -0.291161974357583 -112.36024942993 -0.291161974357584 -112.36024942993 -17.8124871092602 176.440339246991 
22.1             -18.2732589577411 159.525714232608 -0.29258087522856 -112.868361658221 -0.292580875228562 -112.868361658221 -17.7901749628095 175.999143557758 
22.2             -18.2551937150229 158.992862362876 -0.294001706534207 -113.376496636845 -0.294001706534207 -113.376496636845 -17.7681226358844 175.558523219479 
22.3             -18.2374046438052 158.460008906071 -0.295424513391472 -113.884654848064 -0.29542451339147 -113.884654848064 -17.7463272226114 175.118480661815 
22.4             -18.2198901978358 157.927154330358 -0.296849341868117 -114.392836771982 -0.296849341868118 -114.392836771982 -17.724785825683 174.679018197895 
22.5             -18.2026488430847 157.394299310508 -0.298276238980586 -114.90104288643 -0.298276238980588 -114.90104288643 -17.703495556346 174.240138023294 
22.6             -18.1856790563965 156.861444724828 -0.299705252691403 -115.409273666854 -0.299705252691401 -115.409273666854 -17.6824535343951 173.80184221508  
22.7             -18.1689793241731 156.328591651981 -0.301136431906122 -115.917529586207 -0.301136431906124 -115.917529586207 -17.661656888173 173.364132730937 
22.8             -18.1525481410859 155.795741367704 -0.302569826469944 -116.425811114839 -0.30256982646994 -116.425811114839 -17.6411027545754 172.927011408361 
22.9             -18.1363840088163 155.26289534143  -0.304005487163781 -116.93411872039 -0.304005487163781 -116.93411872039 -17.6207882790605 172.490479963924 
23               -18.1204854348267 154.730055232806 -0.305443465700009 -117.442452867681 -0.305443465700005 -117.442452867681 -17.6007106156639 172.054539992601 
23.1             -18.1048509311598 154.197222888125 -0.306883814717717 -117.950814018609 -0.306883814717714 -117.950814018609 -17.5808669270165 171.619192967177 
23.2             -18.0894790132669 153.664400336667 -0.308326587777623 -118.45920263204 -0.308326587777624 -118.45920263204 -17.5612543843669 171.184440237708 
23.3             -18.074368198866 153.131589786945 -0.309771839356518 -118.967619163706 -0.309771839356517 -118.967619163706 -17.5418701676065 170.750283031054 
23.4             -18.0595170068279 152.598793622878 -0.311219624841332 -119.476064066105 -0.311219624841332 -119.476064066105 -17.5227114652976 170.31672245047  
23.5             -18.0449239560914 152.066014399875 -0.312670000522807 -119.984537788392 -0.312670000522803 -119.984537788392 -17.5037754747041 169.883759475263 
23.6             -18.0305875646071 151.533254840842 -0.314123023588749 -120.493040776288 -0.314123023588748 -120.493040776288 -17.4850594018247 169.451394960511 
23.7             -18.0165063483104 151.000517832124 -0.31557875211689 -121.001573471975 -0.315578752116891 -121.001573471975 -17.4665604614273 169.019629636834 
23.8             -18.0026788201222 150.467806419361 -0.317037245067411 -121.510136313998 -0.317037245067408 -121.510136313998 -17.4482758770856 168.588464110227 
23.9             -17.9891034889787 149.935123803291 -0.318498562274983 -122.018729737174 -0.318498562274979 -122.018729737174 -17.4302028812161 168.157898861954 
24               -17.9757788588895 149.402473335476 -0.319962764440519 -122.527354172495 -0.319962764440514 -122.527354172495 -17.4123387151173 167.727934248488 
24.1             -17.9627034280239 148.869858513979 -0.321429913122494 -123.036010047032 -0.321429913122491 -123.036010047032 -17.3946806290079 167.29857050151  
24.2             -17.9498756878255 148.337282978976 -0.322900070727922 -123.54469778385 -0.322900070727925 -123.54469778385 -17.3772258820669 166.869807727959 
24.3             -17.9372941221551 147.804750508316 -0.324373300502946 -124.053417801915 -0.324373300502945 -124.053417801915 -17.3599717424725 166.441645910132 
24.4             -17.9249572064612 147.272265013032 -0.325849666523061 -124.562170516008 -0.325849666523061 -124.562170516008 -17.3429154874418 166.014084905837 
24.5             -17.912863406979 146.739830532803 -0.327329233683  -125.070956336638 -0.327329233683003 -125.070956336638 -17.3260544032693 165.587124448585 
24.6             -17.9010111799571 146.207451231377 -0.328812067686251 -125.57977566996 -0.328812067686251 -125.57977566996 -17.3093857853653 165.16076414784  
24.7             -17.8893989709116 145.675131391949 -0.330298235034204 -126.088628917692 -0.330298235034203 -126.088628917692 -17.2929069382931 164.735003489304 
24.8             -17.8780252139082 145.142875412506 -0.331787803014993 -126.597516477037 -0.331787803014989 -126.597516477037 -17.2766151758046 164.309841835253 
24.9             -17.8668883308715 144.610687801144 -0.333280839691957 -127.106438740602 -0.33328083969196 -127.106438740602 -17.2605078208758 163.885278424909 
25               -17.8559867309221 144.078573171342 -0.334777413891806 -127.615396096329 -0.334777413891804 -127.615396096329 -17.2445822057393 163.461312374859 
25.1             -17.8453188097402 143.546536237232 -0.336277595192384 -128.124388927416 -0.336277595192382 -128.124388927416 -17.2288356719161 163.037942679512 
25.2             -17.8348829489567 143.014581808828 -0.337781453910198 -128.633417612248 -0.337781453910201 -128.633417612249 -17.2132655702445 162.615168211587 
25.3             -17.824677515571 142.482714787247 -0.339289061087557 -129.142482524333 -0.339289061087561 -129.142482524333 -17.1978692609081 162.19298772265  
25.4             -17.8147008613959 141.950940159916 -0.340800488479414 -129.651584032229 -0.340800488479413 -129.651584032229 -17.1826441134598 161.771399843678 
25.5             -17.804951322528 141.419262995767 -0.342315808539883 -130.160722499486 -0.342315808539885 -130.160722499486 -17.1675875068453 161.35040308566  
25.6             -17.7954272188459 140.887688440419 -0.343835094408494 -130.669898284582 -0.343835094408497 -130.669898284582 -17.152696829422 160.92999584023  
25.7             -17.7861268535327 140.356221711372 -0.345358419896097 -131.179111740869 -0.345358419896098 -131.179111740868 -17.1379694789762 160.510176380334 
25.8             -17.7770485126261 139.824868093181 -0.346885859470461 -131.688363216512 -0.346885859470464 -131.688363216512 -17.1234028627376 160.090942860925 
25.9             -17.7681904645929 139.293632932654 -0.348417488241669 -132.197653054443 -0.348417488241668 -132.197653054443 -17.1089943973893 159.672293319686 
26               -17.7595509599295 138.762521634039 -0.349953381947097 -132.706981592305 -0.349953381947096 -132.706981592305 -17.094741509076 159.25422567779  
26.1             -17.7511282307874 138.231539654237 -0.351493616936228 -133.21634916241 -0.351493616936223 -133.21634916241 -17.0806416334083 158.83673774067  
26.2             -17.7429204906233 137.700692498022 -0.353038270155131 -133.725756091691 -0.353038270155133 -133.725756091691 -17.0666922154629 158.419827198834 
26.3             -17.7349259338745 137.169985713277 -0.354587419130692 -134.235202701668 -0.354587419130691 -134.235202701668 -17.0528907097799 158.003491628689 
26.4             -17.7271427356575 136.639424886257 -0.356141141954561 -134.7446893084  -0.356141141954559 -134.7446893084  -17.0392345803564 157.587728493397 
26.5             -17.7195690514917 136.10901563687  -0.357699517266874 -135.254216222463 -0.357699517266873 -135.254216222463 -17.0257213006352 157.172535143752 
26.6             -17.7122030170463 135.578763613995 -0.359262624239702 -135.763783748907 -0.359262624239695 -135.763783748907 -17.0123483534906 156.757908819073 
26.7             -17.70504274791  135.04867449082  -0.360830542560241 -136.273392187239 -0.360830542560241 -136.273392187239 -16.9991132312097 156.343846648124 
26.8             -17.6980863393851 134.518753960221 -0.362403352413831 -136.783041831392 -0.362403352413827 -136.783041831392 -16.9860134354691 155.930345650052 
26.9             -17.6913318663025 133.989007730178 -0.363981134466637 -137.292732969704 -0.363981134466633 -137.292732969704 -16.9730464773078 155.517402735337 
27               -17.6847773828607 133.459441519231 -0.3655639698482 -137.802465884907 -0.365563969848192 -137.802465884907 -16.9602098770953 155.105014706765 
27.1             -17.6784209224855 132.930061051977 -0.367151940133704 -138.312240854107 -0.367151940133704 -138.312240854107 -16.9475011644956 154.693178260417 
27.2             -17.6722604977119 132.400872054618 -0.36874512732608 -138.82205814878 -0.368745127326081 -138.82205814878 -16.9349178784256 154.281889986671 
27.3             -17.6662941000867 131.871880250551 -0.37034361383786 -139.33191803476 -0.370343613837862 -139.33191803476 -16.9224575670101 153.871146371218 
27.4             -17.6605197000926 131.34309135602  -0.371947482472849 -139.841820772245 -0.371947482472845 -139.841820772245 -16.9101177875305 153.460943796094 
27.5             -17.6549352470916 130.814511075812 -0.373556816407601 -140.351766615792 -0.3735568164076 -140.351766615792 -16.8978961063702 153.05127854072  
27.6             -17.6495386692894 130.286145099019 -0.375171699172744 -140.861755814327 -0.375171699172745 -140.861755814327 -16.8857900989528 152.642146782962 
27.7             -17.6443278737183 129.757999094856 -0.376792214634034 -141.371788611158 -0.376792214634031 -141.371788611158 -16.8737973496775 152.233544600191 
27.8             -17.6393007462401 129.230078708537 -0.378418446973356 -141.881865243984 -0.37841844697336 -141.881865243984 -16.8619154518473 151.825467970362 
27.9             -17.6344551515669 128.702389557226 -0.380050480669462 -142.391985944919 -0.380050480669461 -142.391985944919 -16.8501420075932 151.4179127731   
28               -17.6297889333001 128.174937226046 -0.381688400478594 -142.902150940515 -0.381688400478599 -142.902150940516 -16.8384746277916 151.01087479079  
28.1             -17.6252999139879 127.647727264156 -0.383332291414977 -143.412360451791 -0.383332291414977 -143.412360451791 -16.8269109319778 150.604349709682 
28.2             -17.6209858951989 127.120765180912 -0.384982238731113 -143.922614694265 -0.38498223873111 -143.922614694265 -16.8154485482521 150.198333120998 
28.3             -17.6168446576133 126.594056442081 -0.386638327897985 -144.432913877991 -0.386638327897985 -144.432913877991 -16.804085113181 149.792820522049 
28.4             -17.6128739611297 126.067606466147 -0.38830064458512 -144.943258207608 -0.388300644585122 -144.943258207608 -16.7928182716925 149.387807317355 
28.5             -17.6090715449886 125.541420620687 -0.389969274640544 -145.453647882382 -0.389969274640546 -145.453647882382 -16.781645676965 148.983288819772 
28.6             -17.6054351279103 125.01550421882  -0.391644304070597 -145.964083096261 -0.391644304070596 -145.964083096261 -16.77056499031  148.579260251625 
28.7             -17.601962408248 124.489862515747 -0.393325819019673 -146.474564037937 -0.393325819019678 -146.474564037937 -16.759573881049 148.17571674584  
28.8             -17.5986510641552 123.964500705364 -0.39501390574987 -146.985090890908 -0.39501390574987 -146.985090890908 -16.7486700263827 147.772653347088 
28.9             -17.5954987537672 123.439423916956 -0.396708650620499 -147.495663833545 -0.3967086506205 -147.495663833545 -16.7378511112556 147.370065012924 
29               -17.5925031153951 122.914637211984 -0.398410140067615 -148.006283039173 -0.398410140067616 -148.006283039173 -16.7271148282115 146.967946614932 
29.1             -17.5896617677336 122.390145580947 -0.400118460583388 -148.516948676151 -0.40011846058339 -148.516948676151 -16.7164588772436 146.566292939871 
29.2             -17.5869723100801 121.865953940335 -0.401833698695447 -149.027660907957 -0.401833698695447 -149.027660907957 -16.7058809656373 146.165098690826 
29.3             -17.5844323225667 121.342067129669 -0.403555940946214 -149.538419893283 -0.403555940946213 -149.538419893283 -16.6953788078049 145.764358488357 
29.4             -17.5820393664025 120.818489908626 -0.405285273872113 -150.049225786139 -0.405285273872113 -150.049225786139 -16.6849501251137 145.364066871646 
29.5             -17.5797909841269 120.295226954253 -0.407021783982857 -150.560078735953 -0.407021783982858 -150.560078735953 -16.6745926457057 144.964218299651 
29.6             -17.5776846998736 119.772282858272 -0.408765557740618 -151.07097888769 -0.408765557740622 -151.07097888769 -16.66430410431  144.564807152254 
29.7             -17.5757180196442 119.249662124468 -0.410516681539242 -151.58192638197 -0.410516681539242 -151.58192638197 -16.6540822420466 144.165827731412 
29.8             -17.5738884315905 118.727369166177 -0.412275241683455 -152.092921355194 -0.41227524168346 -152.092921355194 -16.6439248062218 143.767274262301 
29.9             -17.572193406306 118.205408303856 -0.414041324368092 -152.603963939684 -0.414041324368096 -152.603963939684 -16.6338295501153 143.369140894473 
30               -17.570630397126 117.68378376274  -0.415815015657313 -153.115054263817 -0.415815015657317 -153.115054263817 -16.6237942327579 142.971421702987 
30.1             -17.5691968404344 117.162499670604 -0.417596401463922 -153.626192452184 -0.417596401463927 -153.626192452184 -16.6138166187001 142.574110689567 
30.2             -17.567890155979 116.641560055594 -0.419385567528655 -154.137378625742 -0.419385567528663 -154.137378625742 -16.603894477772 142.177201783731 
30.3             -17.5667077471921 116.120968844169 -0.421182599399606 -154.64861290198 -0.421182599399606 -154.64861290198 -16.5940255848316 141.780688843932 
30.4             -17.5656470015192 115.600729859115 -0.422987582411669 -155.159895395099 -0.422987582411676 -155.159895395099 -16.5842077195045 141.384565658696 
30.5             -17.5647052907509 115.080846817661 -0.424800601666118 -155.671226216187 -0.424800601666122 -155.671226216187 -16.5744386659124 140.988825947746 
30.6             -17.5638799713633 114.56132332968  -0.426621742010245 -156.18260547342 -0.426621742010245 -156.18260547342 -16.5647162123908 140.59346336313  
30.7             -17.5631683848604 114.042162895976 -0.428451088017133 -156.694033272257 -0.428451088017135 -156.694033272257 -16.555038151195 140.198471490342 
30.8             -17.5625678581237 113.523368906687 -0.430288723965536 -157.205509715655 -0.430288723965546 -157.205509715655 -16.5454022781979 139.803843849421 
30.9             -17.562075703715 113.004944638936 -0.432134733822113 -157.717034904277 -0.432134733822118 -157.717034904277 -16.5358063924749 139.409573896631 
31               -17.5616892204335 112.486893258741 -0.433989201212566 -158.228608936774 -0.433989201212567 -158.228608936773 -16.5262482963736 139.015655023207 
31.1             -17.5614056933165 111.969217813705 -0.435852209418162 -158.740231909935 -0.435852209418165 -158.740231909935 -16.516725794462 138.622080560627 
31.2             -17.5612223943188 111.451921237053 -0.437723841341962 -159.251903919025 -0.437723841341967 -159.251903919025 -16.5072366938031 138.228843777968 
31.3             -17.5611365825355 110.935006344094 -0.43960417949602 -159.763625058009 -0.439604179496018 -159.763625058009 -16.497778803305 137.835937884638 
31.4             -17.5611455045878 110.418475831489 -0.441493305981425 -160.275395419838 -0.441493305981429 -160.275395419837 -16.488349933377 137.443356031177 
31.5             -17.5612463949891 109.902332276218 -0.443391302469696 -160.787215096732 -0.443391302469704 -160.787215096732 -16.4789478955285 137.051091310329 
31.6             -17.561436476511 109.386578134636 -0.445298250184399 -161.299084180486 -0.445298250184397 -161.299084180486 -16.4695705019489 136.659136758084 
31.7             -17.5617129605494 108.871215741593 -0.447214229883138 -161.811002762783 -0.447214229883139 -161.811002762783 -16.4602155650706 136.267485354734 
31.8             -17.5620730474903 108.356247309637 -0.449139321839895 -162.322970935519 -0.449139321839905 -162.322970935519 -16.450880897114 135.876130025907 
31.9             -17.5625139270752 107.841674928292 -0.451073605827715 -162.834988791146 -0.451073605827722 -162.834988791146 -16.4415643096129 135.485063643582 
32               -17.563032778766 107.327500563403 -0.453017161101815 -163.34705642303 -0.453017161101824 -163.34705642303 -16.4322636129213 135.09427902711  
32.1             -17.5636267721073 106.813726056569 -0.454970066383141 -163.859173925823 -0.454970066383143 -163.859173925823 -16.422976615698 134.703768944201 
32.2             -17.5642930670889 106.300353124619 -0.456932399842309 -164.371341395847 -0.456932399842323 -164.371341395847 -16.41370112437  134.313526111914 
32.3             -17.565028814506 105.787383359136 -0.458904239084193 -164.883558931506 -0.4589042390842 -164.883558931506 -16.4044349425716 133.92354319765  
32.4             -17.5658311560311 105.274818233205 -0.460885661137952 -165.395826633578 -0.460885661137956 -165.395826633578 -16.3951758707742 133.533812814575 
32.5             -17.5666972259288 104.762659067102 -0.462876742418493 -165.908144606246 -0.462876742418498 -165.908144606246 -16.3859217046575 133.144327548931 
32.6             -17.5676241487608 104.250907094141 -0.464877558759872 -166.420512956416 -0.464877558759873 -166.420512956416 -16.3766702364554 132.755079909651 
32.7             -17.5686090423102 103.73956339608  -0.466888185356284 -166.932931795305 -0.466888185356289 -166.932931795305 -16.3674192523613 132.366062379226 
32.8             -17.5696490166726 103.228628934294 -0.468908696772106 -167.445401238402 -0.468908696772112 -167.445401238402 -16.3581665327719 131.977267390266 
32.9             -17.5707411748325 102.718104543734 -0.470939166926062 -167.95792140609 -0.470939166926068 -167.95792140609 -16.3489098513852 131.588687330967 
33               -17.5718826129977 102.207990932891 -0.472979669080562 -168.470492424193 -0.47297966908057 -168.470492424192 -16.3396469744406 131.200314545919 
33.1             -17.5730704209279 101.698288683835 -0.475030275831895 -168.983114424535 -0.475030275831906 -168.983114424535 -16.330375659927 130.812141336869 
33.2             -17.5743016822571 101.188998252312 -0.477091059101462 -169.495787545541 -0.477091059101466 -169.49578754554 -16.3210936567555 130.424159963436 
33.3             -17.5755734748098 100.680119967892 -0.47916209012798 -170.008511932846 -0.479162090127988 -170.008511932845 -16.3117987038905 130.036362643791 
33.4             -17.5768828709115 100.171654034162 -0.481243439460937 -170.521287739943 -0.481243439460941 -170.521287739943 -16.3024885294427 129.648741555276 
33.5             -17.5782269376907 99.6636005289646 -0.483335176955098 -171.034115128856 -0.483335176955101 -171.034115128856 -16.2931608497176 129.261288834988 
33.6             -17.5796027373772 99.1559594046862 -0.48543737176656 -171.546994270834 -0.485437371766607 -171.546994270835 -16.2838133682182 128.873996580299 
33.7             -17.5810073275915 98.6487304885647 -0.487550092350122 -172.059925347101 -0.487550092350131 -172.059925347101 -16.2744437746032 128.486856849329 
33.8             -17.5824377616171 98.1419134830405 -0.48967340645738 -172.5729085496  -0.489673406457501 -172.572908549599 -16.2650497435848 128.099861661288 
33.9             -17.583891088692 97.635507966213  -0.491807381139038 -173.085944081812 -0.491807381139063 -173.085944081812 -16.2556289337829 127.713002996926 
34               -17.5853643542512 97.1295133921519 -0.493952082744827 -173.599032159585 -0.493952082744832 -173.599032159585 -16.2461789865186 127.326272798578 
34.1             -17.5868546001978 96.6239290914566 -0.496107576929401 -174.112173012012 -0.496107576929411 -174.112173012012 -16.2366975245451 126.939662970498 
34.2             -17.5883588651393 96.1187542716833 -0.498273928657887 -174.62536688234 -0.498273928657893 -174.62536688234 -16.2271821507089 126.553165378801 
34.3             -17.5898741846285 95.613988017866  -0.500451202214377 -175.138614028935 -0.500451202214392 -175.138614028934 -16.2176304465585 126.166771851457 
34.4             -17.5913975913861 95.1096292930449 -0.502639461212897 -175.65191472628 -0.50263946121291 -175.65191472628 -16.2080399708638 125.780474178093 
34.5             -17.5929261155173 94.6056769388101 -0.504838768610717 -176.165269266027 -0.504838768610728 -176.165269266027 -16.198408258069 125.394264109703 
34.6             -17.5944567847132 94.1021296758665 -0.507049186724691 -176.678677958093 -0.507049186724699 -176.678677958093 -16.1887328166581 125.008133358186 
34.7             -17.5959866244444 93.5989861046102 -0.509270777250488 -177.192141131814 -0.509270777250499 -177.192141131814 -16.1790111274373 124.622073595749 
34.8             -17.5975126581384 93.0962447057131 -0.511503601285201 -177.70565913715 -0.511503601285204 -177.70565913715 -16.1692406417219 124.236076454115 
34.9             -17.5990319073481 92.5939038407195 -0.51374771935344 -178.21923234595 -0.513747719353446 -178.21923234595 -16.1594187794262 123.850133523547 
35               -17.600541391903 92.0919617526414 -0.51600319143736 -178.732861153281 -0.516003191437366 -178.732861153281 -16.1495429270497 123.464236351662 
35.1             -17.6020381300496 91.5904165665583 -0.51827007701081 -179.246545978818 -0.518270077010816 -179.246545978817 -16.1396104355496 123.078376441999 
35.2             -17.6035191385757 91.0892662902149 -0.520548435078055 -179.760287268306 -0.520548435078068 -179.760287268306 -16.1296186180967 122.692545252337 
35.3             -17.6049814329195 90.5885088146106 -0.522838324217436 179.725914504902 -0.522838324217442 179.725914504902 -16.1195647477041 122.306734192724 
35.4             -17.6064220272632 90.0881419145825 -0.525139802630334 179.212058838236 -0.525139802630348 179.212058838237 -16.1094460547211 121.920934623184 
35.5             -17.6078379346093 89.5881632493731 -0.527452928196061 178.698145198216 -0.527452928196075 178.698145198216 -16.0992597241833 121.535137851084 
35.6             -17.60922616684  89.0885703631847 -0.529777758532924 178.184173018663 -0.529777758532932 178.184173018663 -16.0890028930105 121.149335128105 
35.7             -17.6105837347577 88.5893606857108 -0.532114351066347 177.670141698831 -0.532114351066354 177.670141698831 -16.0786726470396 120.763517646798 
35.8             -17.611907648107 88.0905315326442 -0.534462763104389 177.156050601432 -0.534462763104403 177.156050601432 -16.0682660178836 120.377676536652 
35.9             -17.6131949155752 87.5920801061578 -0.53682305192149 176.64189905056  -0.536823051921495 176.64189905056  -16.0577799796044 119.991802859659 
36               -17.614442544773 87.0940034953498 -0.539195274851096 176.127686329501 -0.539195274851101 176.127686329501 -16.0472114451861 119.605887605286 
36.1             -17.615647542192 86.5962986766548 -0.54157948938807 175.61341167843  -0.54157948938808 175.61341167843  -16.0365572627948 119.219921684818 
36.2             -17.6168069131386 86.0989625142099 -0.543975753301683 175.099074291981 -0.543975753301697 175.099074291981 -16.0258142118115 118.833895924989 
36.3             -17.6179176616435 85.6019917601757 -0.546384124760238 174.584673316683 -0.546384124760247 174.584673316683 -16.0149789986209 118.447801060831 
36.4             -17.6189767903451 85.105383055003  -0.548804662468354 174.070207848252 -0.548804662468363 174.070207848252 -16.0040482521398 118.061627727658 
36.5             -17.6199813003442 84.6091329276426 -0.551237425818168 173.555676928742 -0.551237425818183 173.555676928743 -15.993018519066 117.675366452079 
36.6             -17.6209281910311 84.1132377956916 -0.55368247505575 173.041079543524 -0.553682475055758 173.041079543524 -15.9818862588293 117.289007641956 
36.7             -17.6218144598798 83.6176939654659 -0.556139871464075 172.526414618099 -0.55613987146408 172.5264146181   -15.9706478382213 116.902541575167 
36.8             -17.6226371022112 83.1224976320001 -0.558609677564389 172.011681014733 -0.558609677564394 172.011681014733 -15.9592995256831 116.515958387057 
36.9             -17.6233931109199 82.6276448789607 -0.561091957337468 171.49687752889  -0.561091957337477 171.49687752889  -15.9478374852253 116.129248056437 
37               -17.6240794761652 82.1331316784656 -0.563586776466964 170.982002885464 -0.563586776466974 170.982002885464 -15.9362577699533 115.742400389945 
37.1             -17.6246931850216 81.6389538908082 -0.566094202606792 170.467055734786 -0.566094202606793 170.467055734786 -15.9245563151711 115.355405004615 
37.2             -17.6252312210878 81.1451072640667 -0.568614305675159 169.952034648403 -0.56861430567516 169.952034648403 -15.9127289310304 114.968251308433 
37.3             -17.6256905640515 80.6515874335994 -0.571147158177722 169.436938114593 -0.571147158177737 169.436938114594 -15.9007712946944 114.580928478655 
37.4             -17.6260681892053 80.1583899214084 -0.573692835562988 168.921764533625 -0.573692835562991 168.921764533625 -15.8886789419792 114.193425437639 
37.5             -17.6263610669125 79.6655101353636 -0.576251416612973 168.406512212722 -0.576251416612973 168.406512212723 -15.8764472584351 113.805730825903 
37.6             -17.6265661620181 79.1729433682766 -0.578822983873111 167.891179360726 -0.578822983873126 167.891179360726 -15.8640714698271 113.417832972078 
37.7             -17.6266804332004 78.6806847968054 -0.581407624125122 167.375764082428 -0.58140762412514 167.375764082428 -15.8515466319688 113.029719859421 
37.8             -17.6267008322613 78.1887294801839 -0.584005428907505 166.86026437256  -0.584005428907505 166.86026437256  -15.838867619866 112.641379088453 
37.9             -17.6266243033481 77.6970723587528 -0.586616495088578 166.3446781094   -0.586616495088588 166.3446781094   -15.826029116114 112.252797835297 
38               -17.6264477821031 77.2057082522808 -0.589240925497786 165.829003047992 -0.589240925497795 165.829003047992 -15.8130255984995 111.863962805186 
38.1             -17.6261681947359 76.7146318580536 -0.591878829621222 165.313236812931 -0.591878829621234 165.313236812931 -15.7998513267452 111.474860180578 
38.2             -17.6257824570104 76.2238377487115 -0.594530324368586 164.7973768907   -0.594530324368592 164.7973768907   -15.7865003283366 111.085475563218 
38.3             -17.6252874731427 75.7333203698142 -0.597195534919096 164.281420621513 -0.597195534919108 164.281420621513 -15.7729663833643 110.695793909435 
38.4             -17.6246801346001 75.2430740371076 -0.599874595655176 163.765365190651 -0.599874595655185 163.765365190651 -15.7592430083122 110.305799457824 
38.5             -17.623957318794 74.7530929334622 -0.602567651193491 163.249207619236 -0.602567651193501 163.249207619236 -15.7453234387147 109.915475648406 
38.6             -17.6231158876603 74.2633711054588 -0.60527485752425 162.732944754419 -0.605274857524252 162.732944754419 -15.731200610607 109.524805032194 
38.7             -17.6221526861126 73.7739024595817 -0.607996383270859 162.216573258935 -0.60799638327087 162.216573258935 -15.7168671406825 109.133769169984 
38.8             -17.6210645403635 73.2846807579896 -0.610732411083682 161.700089599992 -0.610732411083692 161.700089599993 -15.7023153050724 108.742348519013 
38.9             -17.6198482560979 72.7956996138148 -0.613483139183041 161.183490037448 -0.613483139183051 161.183490037448 -15.6875370166544 108.35052230596  
39               -17.6185006164878 72.3069524859518 -0.616248783068816 160.666770611218 -0.616248783068824 160.666770611218 -15.6725238008   107.95826838455  
39.1             -17.6170183800339 71.8184326732809 -0.619029577415885 160.149927127892 -0.619029577415892 160.149927127892 -15.6572667694604 107.565563075785 
39.2             -17.6153982782176 71.3301333082711 -0.621825778177188 159.632955146485 -0.621825778177194 159.632955146485 -15.641756593498 107.172380988577 
39.3             -17.6136370129478 70.8420473498983 -0.624637664918954 159.115849963289 -0.62463766491897 159.11584996329  -15.6259834731636 106.778694818217 
39.4             -17.6117312537814 70.3541675758066 -0.627465543415728 158.598606595774 -0.627465543415736 158.598606595774 -15.609937106627 106.384475119806 
39.5             -17.6096776348978 69.8664865736351 -0.630309748536264 158.081219765473 -0.63030974853627 158.081219765473 -15.5936066564728 105.989690053323 
39.6             -17.6074727518025 69.3789967314186 -0.633170647455673 157.563683879828 -0.633170647455684 157.563683879828 -15.5769807140802 105.594305096595 
39.7             -17.6051131577349 68.8916902269582 -0.636048643233493 157.045993012919 -0.636048643233494 157.045993012919 -15.5600472618216 105.198282721876 
39.8             -17.6025953597498 68.4045590160553 -0.638944178802601 156.528140885059 -0.638944178802606 156.528140885059 -15.5427936330348 104.801582031147 
39.9             -17.599915814441 67.9175948194703 -0.641857741420011 156.010120841192 -0.641857741420018 156.010120841192 -15.5252064697478 104.40415834457  
40               -17.59707092327  67.4307891084655 -0.644789867637089 155.491925828088 -0.644789867637099 155.491925828088 -15.5072716781771 104.005962735734 
40.1             -17.5940570274594 66.9441330887672 -0.647741148854484 154.973548370289 -0.64774114885449 154.973548370289 -15.4889743820673 103.606941506428 
40.2             -17.5908704024057 66.4576176827514 -0.650712237535811 154.454980544823 -0.650712237535819 154.454980544823 -15.4702988740057 103.20703559266  
40.3             -17.58750725156  65.9712335096436 -0.65370385416412 153.936213954685 -0.653703854164124 153.936213954685 -15.4512285649341 102.806179892467 
40.4             -17.5839636997194 65.4849708634884 -0.656716795036201 153.417239701138 -0.656716795036212 153.417239701138 -15.4317459321887 102.404302504707 
40.5             -17.5802357856651 64.9988196885997 -0.659751941003088 152.898048354899 -0.659751941003097 152.898048354899 -15.4118324665438 102.001323866548 
40.6             -17.5763194540741 64.5127695521779 -0.662810267279172 152.37862992633  -0.662810267279181 152.37862992633  -15.3914686189186 101.597155775621 
40.7             -17.5722105466226 64.0268096137188 -0.665892854459528 151.858973834818 -0.665892854459536 151.858973834818 -15.37063374764  101.191700280887 
40.8             -17.5679047921885 63.5409285907876 -0.669000900903274 151.339068877574 -0.669000900903279 151.339068877574 -15.3493060674501 100.7848484241   
40.9             -17.5633977960489 63.0551147206674 -0.67213573666254 150.818903198199 -0.672135736662562 150.818903198199 -15.327462601826 100.376478811314 
41               -17.5586850279525 62.5693557173107 -0.675298839160222 150.298464255464 -0.675298839160234 150.298464255464 -15.30507914065  99.9664559912313 
41.1             -17.5537618089324 62.0836387229305 -0.678491850847122 149.777738792886 -0.678491850847135 149.777738792886 -15.282130205867 99.5546286142348 
41.2             -17.5486232967064 61.5979502534656 -0.681716599099072 149.256712809894 -0.681716599099084 149.256712809894 -15.2585890285147 99.1408273428115 
41.3             -17.5432644694882 61.1122761370182 -0.684975118648602 148.735371535552 -0.684975118648615 148.735371535552 -15.2344275414499 98.7248624807299 
41.4             -17.5376801080097 60.6266014442158 -0.688269676883014 148.213699406149 -0.688269676883027 148.213699406149 -15.2096163932632 98.3065212849065 
41.5             -17.5318647755266 60.1409104092688 -0.691602802382053 147.69168004826  -0.691602802382067 147.69168004826  -15.1841249903379 97.8855649205183 
41.6             -17.5258127955424 59.6551863402701 -0.694977317112939 147.169296269352 -0.694977317112957 147.169296269352 -15.1579215758134 97.461725016821  
41.7             -17.5195182269509 59.1694115170378 -0.698396372748362 146.646530058539 -0.69839637274838 146.646530058539 -15.1309733564588 97.034699778647  
41.8             -17.5129748362493 58.6835670744719 -0.701863491623396 146.123362600769 -0.701863491623416 146.123362600769 -15.1032466912206 96.6041496071825 
41.9             -17.5061760664203 58.1976328690367 -0.705382612898484 145.599774308537 -0.705382612898501 145.599774308537 -15.0747073585919 96.169692184067  
42               -17.4991150020222 57.7115873255053 -0.708958144545269 145.075744876291 -0.708958144545293 145.075744876291 -15.045320924075 95.7308969761408 
42.1             -17.4917843299496 57.2254072605684 -0.712595021817764 144.5512533639   -0.712595021817787 144.5512533639   -15.0150532339948 95.2872791256594 
42.2             -17.4841762952426 56.739067679212  -0.716298772906442 144.02627831718  -0.716298772906466 144.02627831718  -14.983871067892 94.8382927044653 
42.3             -17.4762826512233 56.2525415389552 -0.720075592491388 143.50079793533  -0.720075592491405 143.50079793533  -14.9517429887898 94.3833233330434 
42.4             -17.4680946031163 55.7657994760183 -0.723932423901435 142.97479029749  -0.723932423901465 142.97479029749  -14.91864043885  93.9216802001031 
42.5             -17.4596027441718 55.2788094862334 -0.727877050534815 142.448233663443 -0.72787705053484 142.448233663442 -14.8845391372994 93.4525875699428 
42.6             -17.4507969831421 54.7915365519683 -0.731918197082425 141.921106866903 -0.731918197082452 141.921106866903 -14.8494208478405 92.9751759393209 
42.7             -17.4416664617689 54.3039422043929 -0.736065640890039 141.393389823928 -0.73606564089007 141.393389823928 -14.8132755936652 92.4884731104129 
42.8             -17.4321994607014 53.81598400803   -0.740330333461811 140.865064183793 -0.740330333461846 140.865064183793 -14.7761044088575 91.9913955908882 
42.9             -17.4223832919944 53.3276149515063 -0.744724531593789 140.336114155377 -0.74472453159383 140.336114155377 -14.7379227240288 91.4827409270233 
43               -17.4122041760047 52.8387827246399 -0.749261936865146 139.806527548564 -0.749261936865176 139.806527548564 -14.6987644892515 90.9611818329256 
43.1             -17.4016471001168 52.3494288572122 -0.753957841118384 139.276297077474 -0.753957841118425 139.276297077474 -14.6586871353211 90.4252633100777 
43.2             -17.3906956562676 51.8594876886941 -0.758829274015523 138.745421980213 -0.758829274015573 138.745421980213 -14.6177774600784 89.8734043654339 
43.3             -17.379331853693 51.3688851304484 -0.763895146623493 138.213910017915 -0.763895146623538 138.213910017915 -14.5761584929427 89.3039064350005 
43.4             -17.367535902668 50.8775371720026 -0.769176382089038 137.681779923404 -0.769176382089084 137.681779923404 -14.5339973285845 88.7149711906657 
43.5             -17.3552859642459 50.3853480701694 -0.774696020611864 137.149064375576 -0.774696020611924 137.149064375576 -14.4915138181159 88.104731013468  
43.6             -17.3425578600929 49.8922081432172 -0.780479280900878 136.615813577738 -0.780479280900941 136.615813577738 -14.4489898499499 87.471295979151  
43.7             -17.3293247354453 49.3979910706377 -0.786553553896509 136.082099513551 -0.786553553896567 136.082099513551 -14.4067787295134 86.8128215864255 
43.8             -17.3155566669662 48.9025505706465 -0.7929482966159 135.548020938857 -0.79294829661596 135.548020938856 -14.3653138685409 86.1276014528662 
43.9             -17.3012202058246 48.4057162899595 -0.799694784525724 135.013709135383 -0.799694784525798 135.013709135382 -14.3251156230802 85.4141885071301 
44               -17.28627784466  47.9072886902461 -0.806825670153782 134.479334395405 -0.806825670153864 134.479334395405 -14.2867946982975 84.6715464379558 
44.1             -17.2706873952309 47.4070326481663 -0.814374284494057 133.945113115027 -0.814374284494143 133.945113115027 -14.2510501255584 83.8992299069815 
44.2             -17.25440126155  46.9046693941308 -0.82237360770416 133.41131523672  -0.82237360770425 133.41131523672  -14.2186595176402 83.0975869629856 
44.3             -17.2373655913724 46.399866289058  -0.830854829343418 132.87827158841  -0.830854829343517 132.87827158841  -14.1904592779696 82.2679701601317 
44.4             -17.2195192868819 45.8922237599484 -0.839845420178953 132.346380409726 -0.839845420179048 132.346380409726 -14.1673128749062 81.4129345886601 
44.5             -17.2007928565659 45.3812584797083 -0.84936665330003 131.816112039238 -0.849366653300126 131.816112039238 -14.1500663855891 80.5363927168888 
44.6             -17.1811070887414 44.8663814983185 -0.859430549586756 131.288010380068 -0.859430549586858 131.288010380068 -14.1394923630388 79.6436899401672 
44.7             -17.1603715396955 44.3468695589771 -0.87003628930834 130.762689418183 -0.870036289308443 130.762689418184 -14.1362256014492 78.7415640912996 
44.8             -17.1384828437817 43.82182705926   -0.881166234509019 130.240822826953 -0.881166234509123 130.240822826954 -14.14069715881  77.8379598912065 
44.9             -17.1153228956968 43.2901350386637 -0.892781846309992 129.723124691588 -0.892781846310087 129.723124691589 -14.1530753478028 76.9416869744598 
45               -17.09075703726  42.7503819392437 -0.904819947168404 129.210319796469 -0.904819947168507 129.210319796469 -14.1732234315029 76.0619363615915 
45.1             -17.0646325453054 42.2007684496133 -0.917189943414253 128.703102903827 -0.917189943414344 128.703102903827 -14.2006827112026 75.2076999869274 
45.2             -17.0367780371822 41.6389750857825 -0.929772741510344 128.202088105518 -0.929772741510412 128.202088105519 -14.2346863364909 74.387163096425  
45.3             -17.0070050290976 41.0619756853279 -0.942422100547255 127.707751571711 -0.942422100547323 127.707751571711 -14.2742040533087 73.6071516231769 
45.4             -16.9751140785566 40.465771868068  -0.95496900159053 127.220373511237 -0.954969001590597 127.220373511237 -14.3180125078946 72.8727108196312 
45.5             -16.9409102637918 39.8450117760936 -0.967229246783173 126.739987272276 -0.967229246783221 126.739987272276 -14.3647812104116 72.1868680758156 
45.6             -16.9042372918864 39.1924404646484 -0.979013951303307 126.266344444571 -0.979013951303341 126.266344444572 -14.413162074289 71.5505985242856 
45.7             -16.8650484642843 38.4981109980881 -0.990141961659874 125.798903858392 -0.990141961659892 125.798903858393 -14.4618710202743 70.9629765910305 
45.8             -16.8235503707374 37.7482754766656 -1.00045269443307 125.336849239448 -1.00045269443307 125.336849239448 -14.5097529931313 70.4214693172765 
45.9             -16.7804896464759 36.923914067441  -1.00981762807713 124.879135428291 -1.00981762807714 124.879135428292 -14.5558257976565 69.9223133963433 
46               -16.7377176747717 35.99907590624   -1.01814882716894 124.424557701364 -1.01814882716894 124.424557701365 -14.5993022137736 69.4609178369058 
46.1             -16.6992746296648 34.9399714717966 -1.02540344364452 123.971834451803 -1.0254034436445 123.971834451803 -14.6395929957135 69.0322445047514 
46.2             -16.6733432150365 33.7080298548662 -1.03158399312436 123.519691877824 -1.03158399312433 123.519691877824 -14.6762951908956 68.6311343560434 
46.3             -16.6752232545998 32.2757391519233 -1.03673506925209 123.066941675768 -1.03673506925207 123.066941675769 -14.7091707770634 68.2525631814746 
46.4             -16.7297648457725 30.6731306987452 -1.04093746418708 122.612549602893 -1.04093746418705 122.612549602893 -14.7381202384298 67.8918239253913 
46.5             -16.8661525699305 29.0771448028106 -1.0442992900694 122.155699266019 -1.04429929006936 122.155699266019 -14.7631548001648 67.5446417731337 
46.6             -17.0924563310022 27.8713078950201 -1.04694093505921 121.695838579024 -1.04694093505917 121.695838579024 -14.784369968486 67.2072333734054 
46.7             -17.3605056034516 27.4575418465003 -1.04897533136517 121.232647205829 -1.04897533136514 121.232647205829 -14.8019219610689 66.8763236637803 
46.8             -17.5828967545252 27.8469652251018 -1.05050072607162 120.765912233327 -1.0505007260716 120.765912233327 -14.8160076672965 66.5491328462285 
46.9             -17.7071264875614 28.6261051665587 -1.05161203021835 120.295464231499 -1.05161203021833 120.295464231499 -14.8268482758927 66.2233431209    
47               -17.7419837429396 29.3742429001194 -1.05240678510792 119.821226542593 -1.05240678510791 119.821226542594 -14.8346765443628 65.8970534051358 
47.1             -17.7213228707783 29.899992804113  -1.05297825359169 119.343248360472 -1.05297825359168 119.343248360472 -14.8397273385298 65.5687293707102 
47.2             -17.6736771244354 30.182330718795  -1.05340837703769 118.861680768105 -1.05340837703768 118.861680768105 -14.8422308388526 65.2371534598654 
47.3             -17.6158786347574 30.2638009344352 -1.05376556813447 118.376737817454 -1.05376556813447 118.376737817454 -14.8424078689357 64.9013773719632 
47.4             -17.5562981654414 30.1951893557907 -1.05410534356814 117.888666328238 -1.05410534356814 117.888666328238 -14.8404668933679 64.5606784853719 
47.5             -17.4986175856333 30.0182522206776 -1.0544718569408 117.397726050077 -1.0544718569408 117.397726050077 -14.8366022928718 64.2145209962652 
47.6             -17.4441990062078 29.7636358277879 -1.05489955647918 116.904176931441 -1.05489955647919 116.904176931441 -14.8309935850333 63.8625220159674 
47.7             -17.3933319134384 29.4529605255484 -1.05541474072332 116.408270950678 -1.05541474072334 116.408270950678 -14.8238053216166 63.5044224981585 
47.8             -17.3458442457076 29.1013304559899 -1.05603695493538 115.910246995949 -1.05603695493538 115.910246995949 -14.8151874517758 63.1400626480471 
47.9             -17.3013907695561 28.719335718145  -1.05678021669004 115.410327869717 -1.05678021669006 115.410327869717 -14.8052759905607 62.7693613556743 
48               -17.2595846301918 28.3144745611399 -1.05765407340034 114.908718796953 -1.05765407340035 114.908718796953 -14.7941938731486 62.3922991574855 
48.1             -17.2200541448843 27.8921227804758 -1.05866450128942 114.405606988922 -1.05866450128945 114.405606988922 -14.7820519078225 62.0089042367906 
48.2             -17.1824644880845 27.4561864835714 -1.05981465939084 113.901161928779 -1.05981465939086 113.901161928779 -14.7689497659929 61.6192410057724 
48.3             -17.1465232776041 27.0095421335521 -1.06110551440077 113.395536129715 -1.06110551440079 113.395536129715 -14.7549769667736 61.223400856663  
48.4             -17.1119791386929 26.5543354511458 -1.06253635295237 112.888866181731 -1.06253635295239 112.888866181731 -14.7402138279736 60.8214947194931 
48.5             -17.0786175430136 26.0921866381182 -1.06410519751065 112.381273954002 -1.06410519751067 112.381273954002 -14.724732365897 60.4136471134207 
48.6             -17.0462559133679 25.6243330069358 -1.06580914097822 111.872867859067 -1.06580914097824 111.872867859067 -14.708597133923 59.9999914252267 
48.7             -17.0147388725054 25.1517293700101 -1.06764461358281 111.363744114775 -1.06764461358284 111.363744114775 -14.6918659951985 59.5806661906685 
48.8             -16.9839339816965 24.675119595028  -1.06960759393513 110.853987962115 -1.06960759393515 110.853987962115 -14.6745908284533 59.1558121914586 
48.9             -16.9537280652324 24.1950882385493 -1.07169377446101 110.343674813102 -1.07169377446103 110.343674813102 -14.6568181684114 58.725570212657  
49               -16.924024105749 23.7120982467452 -1.07389868983049 109.832871314457 -1.07389868983052 109.832871314457 -14.638589783829 58.2900793325475 
49.1             -16.8947386509592 23.226518794395  -1.0762178155783 109.321636320805 -1.07621781557832 109.321636320805 -14.6199431971192 57.8494756400476 
49.2             -16.8657996597525 22.7386460622631 -1.07864664285946 108.810021776525 -1.07864664285948 108.810021776525 -14.6009121499934 57.4038912938998 
49.3             -16.8371447172646 22.2487189012923 -1.08118073420933 108.298073508915 -1.08118073420936 108.298073508915 -14.5815270197169 56.9534538538184 
49.4             -16.8087195559004 21.7569307548851 -1.08381576427102 107.785831937526 -1.08381576427104 107.785831937526 -14.561815190533 56.4982858269156 
49.5             -16.7804768283376 21.2634388149641 -1.0865475486962 107.273332705689 -1.08654754869622 107.273332705689 -14.5418013846335 56.0385043835287 
49.6             -16.7523750874027 20.7683711133855 -1.08937206380039 106.760607240848 -1.08937206380041 106.760607240848 -14.5215079567968 55.5742212054188 
49.7             -16.7243779356347 20.2718320582633 -1.09228545904188 106.247683250421 -1.0922854590419 106.247683250421 -14.5009551565162 55.105542436527  
49.8             -16.6964533141271 19.7739067888722 -1.09528406397528 105.734585159719 -1.09528406397532 105.734585159719 -14.4801613611172 54.632568712356  
49.9             -16.6685729058764 19.27466462565   -1.09836439099336 105.221334498127 -1.09836439099338 105.221334498127 -14.4591432830485 54.1553952488191 
50               -16.6407116334875 18.7741618217235 -1.10152313489697 104.707950239316 -1.10152313489697 104.707950239316 -14.4379161542154 53.6741119752746 
50.1             -16.6128472348515 18.2724437713251 -1.10475717011414 104.194449100722 -1.10475717011417 104.194449100722 -14.4164938899346 53.1888036995971 
50.2             -16.5849599034495 17.7695467929652 -1.10806354621283 103.680845807078 -1.10806354621285 103.680845807078 -14.3948892348125 52.6995502956711 
50.3             -16.5570319823982 17.2654995774441 -1.11143948221138 103.167153322272 -1.11143948221139 103.167153322272 -14.3731138926017 52.206426905739  
50.4             -16.5290477033324 16.7603243700444 -1.11488236007912 102.653383053326 -1.11488236007914 102.653383053326 -14.3511786418593 51.7095041516776 
50.5             -16.5009929628246 16.2540379406441 -1.11838971772945 102.139545029896 -1.11838971772947 102.139545029896 -14.3290934390263 51.2088483506056 
50.6             -16.4728551303373 15.7466523836646 -1.12195924173803 101.625648062282 -1.12195924173805 101.625648062282 -14.3068675103607 50.7045217312824 
50.7             -16.4446228827508 15.2381757807511 -1.12558875996185 101.11169988056  -1.12558875996186 101.11169988056  -14.2845094339947 50.1965826486099 
50.8             -16.4162860613689 14.7286127521524 -1.12927623419173 100.597707257187 -1.12927623419174 100.597707257187 -14.2620272132354 49.6850857942284 
50.9             -16.3878355479944 14.217964917417  -1.13301975293555 100.083676115075 -1.13301975293556 100.083676115075 -14.2394283421007 49.1700824017338 
51               -16.3592631572386 13.706231281859  -1.13681752440234 99.5696116229488 -1.13681752440235 99.5696116229489 -14.216719863966 48.651620445476  
51.1             -16.3305615426928 13.1934085619934 -1.14066786973656 99.0555182795193 -1.14066786973657 99.0555182795194 -14.1939084240935 48.1297448322314 
51.2             -16.3017241149735 12.6794914605836 -1.14456921653519 98.5413999878608 -1.14456921653519 98.5413999878609 -14.1710003167274 47.6044975853104 
51.3             -16.2727449699702 12.1644728999186 -1.14852009266761 98.0272601211722 -1.14852009266762 98.0272601211724 -14.1480015273571 47.0759180208651 
51.4             -16.2436188258829 11.6483442203361 -1.15251912040876 97.5131015809746 -1.15251912040877 97.5131015809747 -14.124917770682 46.5440429163243 
51.5             -16.2143409678571 11.1310953497207 -1.1565650108884 96.9989268486566 -1.15656501088842 96.9989268486567 -14.1017545247468 46.0089066710015 
51.6             -16.1849071992016 10.6127149486825 -1.1606565588543 96.4847380311698 -1.16065655885432 96.4847380311699 -14.0785170616654 45.4705414590158 
51.7             -16.1553137983275 10.0931905352915 -1.16479263774261 95.9705369015723 -1.16479263774262 95.9705369015724 -14.0552104752988 44.9289773747339 
51.8             -16.1255574806714 9.57250859257313 -1.16897219504645 95.4563249350356 -1.16897219504646 95.4563249350357 -14.031839706215 44.384242570987  
51.9             -16.0956353649729 9.05065466142792 -1.17319424797108 94.9421033408507 -1.17319424797109 94.9421033408508 -14.0084095642168 43.8363633903536 
52               -16.0655449433663 8.52761342119397 -1.17745787936309 94.4278730909051 -1.17745787936312 94.4278730909052 -13.9849247486939 43.285364489818  
52.1             -16.0352840548198 8.00336875970656 -1.1817622339006 93.913634945043  -1.18176223390061 93.913634945043  -13.9613898670256 42.731268959129  
52.2             -16.0048508615216 7.47790383441401 -1.18610651453   93.3993894736726 -1.18610651453   93.3993894736727 -13.9378094512329 42.1740984331879 
52.3             -15.9742438278667 6.95120112585996 -1.19048997913616 92.8851370779377 -1.19048997913616 92.8851370779378 -13.9141879730605 41.6138731987924 
52.4             -15.9434617017422 6.42324248464168 -1.19491193743194 92.3708780077338 -1.19491193743194 92.3708780077338 -13.8905298576431 41.0506122960645 
52.5             -15.9125034978506 5.89400917278264 -1.19937174805373 91.8566123778155 -1.19937174805373 91.8566123778155 -13.8668394958995 40.4843336148728 
52.6             -15.8813684828434 5.36348190031971 -1.20386881585043 91.3423401822118 -1.20386881585044 91.3423401822118 -13.8431212557763 39.9150539865617 
52.7             -15.8500561620667 4.83164085778633 -1.20840258935294 90.8280613071402 -1.20840258935296 90.8280613071403 -13.8193794924531 39.3427892712777 
52.8             -15.8185662677452 4.29846574517582 -1.21297255841293 90.3137755425884 -1.21297255841293 90.3137755425885 -13.7956185576072 38.7675544411768 
52.9             -15.7868987484518 3.76393579788625 -1.21757825199922 89.7994825927114 -1.21757825199922 89.7994825927115 -13.7718428078251 38.1893636597822 
53               -15.7550537597301 3.22802981007882 -1.2222192361414 89.2851820851773 -1.2222192361414 89.2851820851774 -13.7480566122386 37.608230357744  
53.1             -15.7230316557518 2.69072615582432 -1.22689511201063 88.7708735795763 -1.22689511201064 88.7708735795764 -13.7242643594543 37.0241673052459 
53.2             -15.6908329819054 2.15200280836071 -1.23160551412827 88.2565565749959 -1.23160551412828 88.256556574996  -13.700470463839 36.4371866812834 
53.3             -15.6584584682247 1.61183735774516 -1.23635010869356 87.7422305168544 -1.23635010869357 87.7422305168545 -13.6766793712141 35.8473001400264 
53.4             -15.625909023576 1.07020702714671 -1.24112859202193 87.227894803072  -1.24112859202193 87.227894803072  -13.6528955640097 35.2545188744692 
53.5             -15.593185730532 0.52708868799652 -1.24594068908647 86.7135487896522 -1.24594068908648 86.7135487896523 -13.6291235659193 34.6588536775524 
53.6             -15.5602898408687 -0.0175411258146138 -1.2507861521554 86.1991917957366 -1.2507861521554 86.1991917957366 -13.6053679460959 34.060315000932  
53.7             -15.5272227716287 -0.563706204521432 -1.25566475951853 85.6848231081895 -1.25566475951855 85.6848231081895 -13.5816333229221 33.4589130115614 
53.8             -15.4939861016992 -1.11143064970414 -1.26057631429687 85.1704419857624 -1.26057631429687 85.1704419857624 -13.5579243673854 32.854657646233  
53.9             -15.4605815688603 -1.66073886200824 -1.26552064332923 84.6560476628839 -1.26552064332923 84.656047662884  -13.5342458060848 32.2475586642245 
54               -15.4270110672624 -2.21165552924522 -1.2704975961308 84.1416393531141 -1.27049759613081 84.1416393531141 -13.5106024238941 31.6376256981763 
54.1             -15.3932766452967 -2.76420561476646 -1.27550704391826 83.6272162522982 -1.27550704391827 83.6272162522982 -13.4869990663009 31.0248683033223 
54.2             -15.3593805038248 -3.31841434601243 -1.28054887869713 83.1127775414534 -1.28054887869711 83.1127775414534 -13.4634406414425 30.4092960051845 
54.3             -15.325324994739 -3.87430720314935 -1.28562301240668 82.5983223894145 -1.28562301240668 82.5983223894145 -13.4399321218529 29.7909183458304 
54.4             -15.2911126198263 -4.43190990771111 -1.29072937611879 82.0838499552654 -1.29072937611878 82.0838499552653 -13.4164785459371 29.169744928791  
54.5             -15.2567460299102 -4.99124841117289 -1.29586791928654 81.5693593905778 -1.29586791928655 81.5693593905779 -13.3930850191848 28.5457854627189 
54.6             -15.2222280242506 -5.55234888338759 -1.30103860903941 81.0548498414788 -1.3010386090394 81.0548498414788 -13.3697567151351 27.9190498038668 
54.7             -15.1875615501796 -6.11523770082036 -1.30624142952159 80.540320450563  -1.30624142952159 80.540320450563  -13.3464988761017 27.2895479974558 
54.8             -15.152749702955 -6.67994143452235 -1.31147638127073 80.0257703586679 -1.31147638127073 80.0257703586679 -13.3233168136677 26.657290317994  
54.9             -15.1177957258155 -7.24648683778728 -1.31674348063388 79.5111987065251 -1.31674348063388 79.5111987065251 -13.300215908957 26.0222873086039 
55               -15.0827030102209 -7.81490083343758 -1.32204275921843 78.9966046363013 -1.32204275921843 78.9966046363012 -13.2772016126894 25.3845498194072 
55.1             -15.0474750962626 -8.38521050069044 -1.32737426337536 78.4819872930401 -1.32737426337535 78.4819872930401 -13.2542794450248 24.7440890450093 
55.2             -15.0121156732309 -8.95744306155587 -1.33273805371265 77.9673458260156 -1.33273805371266 77.9673458260156 -13.2314549952014 24.1009165611225 
55.3             -14.9766285803274 -9.53162586672112 -1.3381342046369 77.4526793900064 -1.33813420463689 77.4526793900064 -13.2087339209723 23.4550443603604 
55.4             -14.9410178075088 -10.1077863808772 -1.3435628039207 76.9379871464989 -1.34356280392069 76.9379871464989 -13.1861219478435 22.8064848872286 
55.5             -14.9052874964519 -10.6859521674459 -1.34902395229467 76.4232682648272 -1.34902395229467 76.4232682648272 -13.163624868118 22.1552510723359 
55.6             -14.8694419416285 -11.2661508726666 -1.35451776306187 75.9085219232565 -1.35451776306186 75.9085219232565 -13.1412485397471 21.5013563658402 
55.7             -14.8334855914799 -11.8484102090018 -1.3600443617332 75.3937473100157 -1.36004436173321 75.3937473100157 -13.1189988849916 20.8448147701449 
55.8             -14.7974230496815 -12.4327579378259 -1.36560388568247 74.8789436242849 -1.36560388568247 74.8789436242849 -13.0968818888961 20.1856408718507 
55.9             -14.7612590764869 -13.0192218513576 -1.37119648381946 74.3641100771422 -1.37119648381946 74.3641100771421 -13.0749035975768 19.523849872969  
56               -14.724998590143 -13.6078297538   -1.37682231627993 73.8492458924749 -1.37682231627992 73.8492458924748 -13.0530701163246 18.8594576213952 
56.1             -14.6886466683661 -14.1986094416545 -1.38248155413133 73.3343503078583 -1.38248155413133 73.3343503078583 -13.0313876075266 18.1924806406394 
56.2             -14.6522085498702 -14.7915886831736 -1.38817437909303 72.8194225754059 -1.38817437909302 72.8194225754058 -13.0098622884049 17.5229361588055 
56.3             -14.615689635939 -15.3867951969176 -1.3939009832699 72.3044619625932 -1.39390098326991 72.3044619625932 -12.9885004285758 16.850842136809  
56.4             -14.5790954920313 -15.9842566293861 -1.39966156889875 71.7894677530603 -1.39966156889875 71.7894677530602 -12.9673083474306 16.1762172958188 
56.5             -14.5424318494118 -16.5840005316898 -1.40545634810597 71.2744392473916 -1.40545634810598 71.2744392473916 -12.9462924113386 15.499081143905  
56.6             -14.5057046067986 -17.1860543352335 -1.41128554267625 70.75937576388   -1.41128554267624 70.7593757638799 -12.9254590306747 14.8194540018736 
56.7             -14.4689198320162 -17.7904453263822 -1.41714938383098 70.2442766392722 -1.41714938383098 70.2442766392721 -12.9048146566721 14.1373570282641 
56.8             -14.4320837636473 -18.3972006200794 -1.42304811201612 69.7291412295011 -1.42304811201613 69.729141229501  -12.8843657781034 13.4528122434855 
56.9             -14.3952028126724 -19.0063471323941 -1.42898197669828 69.2139689104038 -1.42898197669828 69.2139689104037 -12.8641189177906 12.7658425530619 
57               -14.3582835640876 -19.6179115519674 -1.43495123616882 68.6987590784285 -1.43495123616882 68.6987590784285 -12.8440806289462 12.0764717699573 
57.1             -14.3213327784918 -20.2319203103385 -1.44095615735505 68.1835111513304 -1.44095615735506 68.1835111513303 -12.8242574913499 11.3847246359493 
57.2             -14.2843573936317 -20.8483995511247 -1.44699701563822 67.668224568857  -1.44699701563822 67.6682245688569 -12.80465610736  10.6906268420157 
57.3             -14.2473645258961 -21.4673750980364 -1.45307409467736 67.1528987934259 -1.45307409467735 67.1528987934258 -12.7852830977658 9.99420504769928 
57.4             -14.2103614717474 -22.0888724217078 -1.45918768623895 66.6375333107925 -1.45918768623895 66.6375333107924 -12.7661450974823 9.29548689941419 
57.5             -14.1733557090805 -22.7129166053277 -1.4653380900316 66.1221276307113 -1.46533809003161 66.1221276307113 -12.7472487510917 8.59450104765493 
57.6             -14.1363548984975 -23.3395323090538 -1.4715256135454 65.6066812875895 -1.4715256135454 65.6066812875894 -12.7286007082352 7.89127716307015 
57.7             -14.0993668844867 -23.9687437332019 -1.47775057189545 65.0911938411327 -1.47775057189544 65.0911938411326 -12.7102076188597 7.18584595135894 
57.8             -14.0623996964945 -24.6005745801981 -1.48401328766941 64.5756648769858 -1.4840132876694 64.5756648769857 -12.6920761283246 6.47823916695196 
57.9             -14.0254615498779 -25.2350480152893 -1.49031409077845 64.0600940073657 -1.49031409077846 64.0600940073657 -12.6742128723731 5.76848962543406 
58               -13.9885608467257 -25.8721866260079 -1.49665331831139 63.5444808716885 -1.49665331831139 63.5444808716885 -12.6566244719738 5.05663121466911 
58.1             -13.9517061765344 -26.5120123803924 -1.50303131439165 63.0288251371899 -1.50303131439166 63.0288251371899 -12.6393175280395 4.34269890458537 
58.2             -13.9149063167278 -27.1545465839657 -1.50944843003678 62.5131264995395 -1.50944843003678 62.5131264995394 -12.6222986160289 3.62672875558095 
58.3             -13.8781702330053 -27.7998098354805 -1.51590502302027 61.9973846834485 -1.51590502302029 61.9973846834484 -12.6055742804374 2.90875792551031 
58.4             -13.8415070795062 -28.4478219814434 -1.52240145773538 61.4815994432712 -1.52240145773539 61.4815994432711 -12.589151029187 2.18882467521195 
58.5             -13.8049261987757 -29.0986020694327 -1.52893810506067 60.9657705635988 -1.52893810506068 60.9657705635987 -12.5730353279198 1.46696837253945 
58.6             -13.7684371215185 -29.7521683002332 -1.53551534222725 60.4498978598473 -1.53551534222725 60.4498978598472 -12.5572335942062 0.743229494860123 
58.7             -13.7320495661261 -30.4085379788109 -1.54213355268727 59.9339811788374 -1.54213355268728 59.9339811788373 -12.5417521916752 0.0176496299858687 
58.8             -13.6957734379628 -31.0677274641615 -1.54879312598358 59.4180203993669 -1.54879312598358 59.4180203993668 -12.5265974240761 -0.709728524497204 
58.9             -13.6596188283953 -31.7297521180678 -1.5554944576205 58.9020154327754 -1.55549445762051 58.9020154327753 -12.5117755292814 -1.43886116353026 
59               -13.6235960135514 -32.3946262528085 -1.56223794893533 58.385966223501  -1.56223794893533 58.3859662235009 -12.4972926732411 -2.16970337854359 
59.1             -13.587715452793 -33.0623630778679 -1.56902400697063 57.8698727496274 -1.56902400697063 57.8698727496273 -12.4831549438989 -2.90220916310513 
59.2             -13.5519877868878 -33.7329746457003 -1.57585304434708 57.3537350234231 -1.57585304434709 57.3537350234231 -12.4693683450803 -3.63633142027759 
59.3             -13.5164238358646 -34.4064717966108 -1.58272547913677 56.8375530918704 -1.58272547913678 56.8375530918704 -12.4559387903652 -4.37202197170542 
59.4             -13.4810345965372 -35.0828641028216 -1.58964173473695 56.3213270371846 -1.58964173473695 56.3213270371846 -12.4428720969552 -5.10923156844819 
59.5             -13.4458312396821 -35.7621598117986 -1.5966022397439 55.805056977323  -1.59660223974391 55.805056977323  -12.4301739795487 -5.8479099035725 
59.6             -13.4108251068547 -36.4443657889212 -1.6036074278272 55.2887430664831 -1.60360742782721 55.2887430664831 -12.4178500442343 -6.58800562651373 
59.7             -13.3760277068301 -37.1294874595853 -1.610657737604  54.7723854955896 -1.61065773760401 54.7723854955895 -12.4059057824169 -7.32946635921202 
59.8             -13.3414507116527 -37.8175287508394 -1.61775361251342 54.255984492769  -1.61775361251343 54.255984492769  -12.3943465647874 -8.07223871402496 
59.9             -13.3071059522828 -38.5084920326564 -1.62489550069101 53.7395403238133 -1.62489550069102 53.7395403238132 -12.3831776353497 -8.8162683134133 
60               -13.2730054138244 -39.2023780589588 -1.63208385484322 53.2230532926296 -1.63208385484323 53.2230532926296 -12.3724041055178 -9.56149981139395 
